\ Model Unified_Swarm_Routing_simplified_small
\ LP format - for model browsing. Use MPS format to capture full model detail.
\ Signature: 0x705f0e4ccbb412d
Minimize
  0.001 v[C1,K1,1] + 0.001 v[C1,K1,2] + 0.001 v[C1,K1,3] + 0.001 v[C1,K1,4]
   + 0.001 v[C1,K1,5] + 0.001 v[C1,K1,6] + 0.001 v[C1,K1,7]
   + 0.001 v[C1,K1,8] + 0.001 v[C1,K1,9] + 0.001 v[C1,K1,10]
   + 0.001 v[C1,K1,11] + 0.001 v[C1,K1,12] + 0.001 v[C1,K1,13]
   + 0.001 v[C1,K1,14] + 0.001 v[C1,K1,15] + 0.001 v[C1,K1,16]
   + 0.001 v[C1,K1,17] + 0.001 v[C1,K1,18] + 0.001 v[C1,K1,19]
   + 0.001 v[C1,K1,20] + 0.001 v[C1,K1,21] + 0.001 v[C1,K1,22]
   + 0.001 v[C1,K1,23] + 0.001 v[C1,K1,24] + 0.001 v[C1,K1,25]
   + 0.001 v[C1,K1,26] + 0.001 v[C1,K1,27] + 0.001 v[C1,K1,28]
   + 0.001 v[C1,K1,29] + 0.001 v[C1,K1,30] + 0.001 v[C1,K2,1]
   + 0.001 v[C1,K2,2] + 0.001 v[C1,K2,3] + 0.001 v[C1,K2,4]
   + 0.001 v[C1,K2,5] + 0.001 v[C1,K2,6] + 0.001 v[C1,K2,7]
   + 0.001 v[C1,K2,8] + 0.001 v[C1,K2,9] + 0.001 v[C1,K2,10]
   + 0.001 v[C1,K2,11] + 0.001 v[C1,K2,12] + 0.001 v[C1,K2,13]
   + 0.001 v[C1,K2,14] + 0.001 v[C1,K2,15] + 0.001 v[C1,K2,16]
   + 0.001 v[C1,K2,17] + 0.001 v[C1,K2,18] + 0.001 v[C1,K2,19]
   + 0.001 v[C1,K2,20] + 0.001 v[C1,K2,21] + 0.001 v[C1,K2,22]
   + 0.001 v[C1,K2,23] + 0.001 v[C1,K2,24] + 0.001 v[C1,K2,25]
   + 0.001 v[C1,K2,26] + 0.001 v[C1,K2,27] + 0.001 v[C1,K2,28]
   + 0.001 v[C1,K2,29] + 0.001 v[C1,K2,30] + 0.001 v[C2,K1,1]
   + 0.001 v[C2,K1,2] + 0.001 v[C2,K1,3] + 0.001 v[C2,K1,4]
   + 0.001 v[C2,K1,5] + 0.001 v[C2,K1,6] + 0.001 v[C2,K1,7]
   + 0.001 v[C2,K1,8] + 0.001 v[C2,K1,9] + 0.001 v[C2,K1,10]
   + 0.001 v[C2,K1,11] + 0.001 v[C2,K1,12] + 0.001 v[C2,K1,13]
   + 0.001 v[C2,K1,14] + 0.001 v[C2,K1,15] + 0.001 v[C2,K1,16]
   + 0.001 v[C2,K1,17] + 0.001 v[C2,K1,18] + 0.001 v[C2,K1,19]
   + 0.001 v[C2,K1,20] + 0.001 v[C2,K1,21] + 0.001 v[C2,K1,22]
   + 0.001 v[C2,K1,23] + 0.001 v[C2,K1,24] + 0.001 v[C2,K1,25]
   + 0.001 v[C2,K1,26] + 0.001 v[C2,K1,27] + 0.001 v[C2,K1,28]
   + 0.001 v[C2,K1,29] + 0.001 v[C2,K1,30] + 0.001 v[C2,K2,1]
   + 0.001 v[C2,K2,2] + 0.001 v[C2,K2,3] + 0.001 v[C2,K2,4]
   + 0.001 v[C2,K2,5] + 0.001 v[C2,K2,6] + 0.001 v[C2,K2,7]
   + 0.001 v[C2,K2,8] + 0.001 v[C2,K2,9] + 0.001 v[C2,K2,10]
   + 0.001 v[C2,K2,11] + 0.001 v[C2,K2,12] + 0.001 v[C2,K2,13]
   + 0.001 v[C2,K2,14] + 0.001 v[C2,K2,15] + 0.001 v[C2,K2,16]
   + 0.001 v[C2,K2,17] + 0.001 v[C2,K2,18] + 0.001 v[C2,K2,19]
   + 0.001 v[C2,K2,20] + 0.001 v[C2,K2,21] + 0.001 v[C2,K2,22]
   + 0.001 v[C2,K2,23] + 0.001 v[C2,K2,24] + 0.001 v[C2,K2,25]
   + 0.001 v[C2,K2,26] + 0.001 v[C2,K2,27] + 0.001 v[C2,K2,28]
   + 0.001 v[C2,K2,29] + 0.001 v[C2,K2,30] + C_max
Subject To
 makespan_K1: - C_k[K1] + C_max >= 0
 completion_K1_1: - z[K1,1] + C_k[K1] >= 0
 completion_K1_2: - 2 z[K1,2] + C_k[K1] >= 0
 completion_K1_3: - 3 z[K1,3] + C_k[K1] >= 0
 completion_K1_4: - 4 z[K1,4] + C_k[K1] >= 0
 completion_K1_5: - 5 z[K1,5] + C_k[K1] >= 0
 completion_K1_6: - 6 z[K1,6] + C_k[K1] >= 0
 completion_K1_7: - 7 z[K1,7] + C_k[K1] >= 0
 completion_K1_8: - 8 z[K1,8] + C_k[K1] >= 0
 completion_K1_9: - 9 z[K1,9] + C_k[K1] >= 0
 completion_K1_10: - 10 z[K1,10] + C_k[K1] >= 0
 completion_K1_11: - 11 z[K1,11] + C_k[K1] >= 0
 completion_K1_12: - 12 z[K1,12] + C_k[K1] >= 0
 completion_K1_13: - 13 z[K1,13] + C_k[K1] >= 0
 completion_K1_14: - 14 z[K1,14] + C_k[K1] >= 0
 completion_K1_15: - 15 z[K1,15] + C_k[K1] >= 0
 completion_K1_16: - 16 z[K1,16] + C_k[K1] >= 0
 completion_K1_17: - 17 z[K1,17] + C_k[K1] >= 0
 completion_K1_18: - 18 z[K1,18] + C_k[K1] >= 0
 completion_K1_19: - 19 z[K1,19] + C_k[K1] >= 0
 completion_K1_20: - 20 z[K1,20] + C_k[K1] >= 0
 completion_K1_21: - 21 z[K1,21] + C_k[K1] >= 0
 completion_K1_22: - 22 z[K1,22] + C_k[K1] >= 0
 completion_K1_23: - 23 z[K1,23] + C_k[K1] >= 0
 completion_K1_24: - 24 z[K1,24] + C_k[K1] >= 0
 completion_K1_25: - 25 z[K1,25] + C_k[K1] >= 0
 completion_K1_26: - 26 z[K1,26] + C_k[K1] >= 0
 completion_K1_27: - 27 z[K1,27] + C_k[K1] >= 0
 completion_K1_28: - 28 z[K1,28] + C_k[K1] >= 0
 completion_K1_29: - 29 z[K1,29] + C_k[K1] >= 0
 completion_K1_30: - 30 z[K1,30] + C_k[K1] >= 0
 makespan_K2: - C_k[K2] + C_max >= 0
 completion_K2_1: - z[K2,1] + C_k[K2] >= 0
 completion_K2_2: - 2 z[K2,2] + C_k[K2] >= 0
 completion_K2_3: - 3 z[K2,3] + C_k[K2] >= 0
 completion_K2_4: - 4 z[K2,4] + C_k[K2] >= 0
 completion_K2_5: - 5 z[K2,5] + C_k[K2] >= 0
 completion_K2_6: - 6 z[K2,6] + C_k[K2] >= 0
 completion_K2_7: - 7 z[K2,7] + C_k[K2] >= 0
 completion_K2_8: - 8 z[K2,8] + C_k[K2] >= 0
 completion_K2_9: - 9 z[K2,9] + C_k[K2] >= 0
 completion_K2_10: - 10 z[K2,10] + C_k[K2] >= 0
 completion_K2_11: - 11 z[K2,11] + C_k[K2] >= 0
 completion_K2_12: - 12 z[K2,12] + C_k[K2] >= 0
 completion_K2_13: - 13 z[K2,13] + C_k[K2] >= 0
 completion_K2_14: - 14 z[K2,14] + C_k[K2] >= 0
 completion_K2_15: - 15 z[K2,15] + C_k[K2] >= 0
 completion_K2_16: - 16 z[K2,16] + C_k[K2] >= 0
 completion_K2_17: - 17 z[K2,17] + C_k[K2] >= 0
 completion_K2_18: - 18 z[K2,18] + C_k[K2] >= 0
 completion_K2_19: - 19 z[K2,19] + C_k[K2] >= 0
 completion_K2_20: - 20 z[K2,20] + C_k[K2] >= 0
 completion_K2_21: - 21 z[K2,21] + C_k[K2] >= 0
 completion_K2_22: - 22 z[K2,22] + C_k[K2] >= 0
 completion_K2_23: - 23 z[K2,23] + C_k[K2] >= 0
 completion_K2_24: - 24 z[K2,24] + C_k[K2] >= 0
 completion_K2_25: - 25 z[K2,25] + C_k[K2] >= 0
 completion_K2_26: - 26 z[K2,26] + C_k[K2] >= 0
 completion_K2_27: - 27 z[K2,27] + C_k[K2] >= 0
 completion_K2_28: - 28 z[K2,28] + C_k[K2] >= 0
 completion_K2_29: - 29 z[K2,29] + C_k[K2] >= 0
 completion_K2_30: - 30 z[K2,30] + C_k[K2] >= 0
 start_at_center_K1: x[0,C1,K1,1] + x[0,C2,K1,1] + v[0,K1,1] = 1
 no_start_outside_C1_K1: v[C1,K1,1] = 0
 no_start_outside_C2_K1: v[C2,K1,1] = 0
 start_at_center_K2: x[0,C1,K2,1] + x[0,C2,K2,1] + v[0,K2,1] = 1
 no_start_outside_C1_K2: v[C1,K2,1] = 0
 no_start_outside_C2_K2: v[C2,K2,1] = 0
 ts_balance_0_K1_2: x[0,C1,K1,2] + x[0,C2,K1,2] - v[0,K1,1] + v[0,K1,2]
   = 0
 ts_balance_0_K1_3: x[0,C1,K1,3] + x[0,C2,K1,3] - v[0,K1,2] + v[0,K1,3]
   = 0
 ts_balance_0_K1_4: x[0,C1,K1,4] + x[0,C2,K1,4] - v[0,K1,3] + v[0,K1,4]
   = 0
 ts_balance_0_K1_5: x[0,C1,K1,5] + x[0,C2,K1,5] - v[0,K1,4] + v[0,K1,5]
   = 0
 ts_balance_0_K1_6: x[0,C1,K1,6] + x[0,C2,K1,6] - v[0,K1,5] + v[0,K1,6]
   = 0
 ts_balance_0_K1_7: x[0,C1,K1,7] + x[0,C2,K1,7] - v[0,K1,6] + v[0,K1,7]
   = 0
 ts_balance_0_K1_8: x[0,C1,K1,8] + x[0,C2,K1,8] - x[C1,0,K1,1] - v[0,K1,7]
   + v[0,K1,8] = 0
 ts_balance_0_K1_9: x[0,C1,K1,9] + x[0,C2,K1,9] - x[C1,0,K1,2]
   - x[C2,0,K1,1] - v[0,K1,8] + v[0,K1,9] = 0
 ts_balance_0_K1_10: x[0,C1,K1,10] + x[0,C2,K1,10] - x[C1,0,K1,3]
   - x[C2,0,K1,2] - v[0,K1,9] + v[0,K1,10] = 0
 ts_balance_0_K1_11: x[0,C1,K1,11] + x[0,C2,K1,11] - x[C1,0,K1,4]
   - x[C2,0,K1,3] - v[0,K1,10] + v[0,K1,11] = 0
 ts_balance_0_K1_12: x[0,C1,K1,12] + x[0,C2,K1,12] - x[C1,0,K1,5]
   - x[C2,0,K1,4] - v[0,K1,11] + v[0,K1,12] = 0
 ts_balance_0_K1_13: x[0,C1,K1,13] + x[0,C2,K1,13] - x[C1,0,K1,6]
   - x[C2,0,K1,5] - v[0,K1,12] + v[0,K1,13] = 0
 ts_balance_0_K1_14: x[0,C1,K1,14] + x[0,C2,K1,14] - x[C1,0,K1,7]
   - x[C2,0,K1,6] - v[0,K1,13] + v[0,K1,14] = 0
 ts_balance_0_K1_15: x[0,C1,K1,15] + x[0,C2,K1,15] - x[C1,0,K1,8]
   - x[C2,0,K1,7] - v[0,K1,14] + v[0,K1,15] = 0
 ts_balance_0_K1_16: x[0,C1,K1,16] + x[0,C2,K1,16] - x[C1,0,K1,9]
   - x[C2,0,K1,8] - v[0,K1,15] + v[0,K1,16] = 0
 ts_balance_0_K1_17: x[0,C1,K1,17] + x[0,C2,K1,17] - x[C1,0,K1,10]
   - x[C2,0,K1,9] - v[0,K1,16] + v[0,K1,17] = 0
 ts_balance_0_K1_18: x[0,C1,K1,18] + x[0,C2,K1,18] - x[C1,0,K1,11]
   - x[C2,0,K1,10] - v[0,K1,17] + v[0,K1,18] = 0
 ts_balance_0_K1_19: x[0,C1,K1,19] + x[0,C2,K1,19] - x[C1,0,K1,12]
   - x[C2,0,K1,11] - v[0,K1,18] + v[0,K1,19] = 0
 ts_balance_0_K1_20: x[0,C1,K1,20] + x[0,C2,K1,20] - x[C1,0,K1,13]
   - x[C2,0,K1,12] - v[0,K1,19] + v[0,K1,20] = 0
 ts_balance_0_K1_21: x[0,C1,K1,21] + x[0,C2,K1,21] - x[C1,0,K1,14]
   - x[C2,0,K1,13] - v[0,K1,20] + v[0,K1,21] = 0
 ts_balance_0_K1_22: x[0,C1,K1,22] + x[0,C2,K1,22] - x[C1,0,K1,15]
   - x[C2,0,K1,14] - v[0,K1,21] + v[0,K1,22] = 0
 ts_balance_0_K1_23: x[0,C1,K1,23] + x[0,C2,K1,23] - x[C1,0,K1,16]
   - x[C2,0,K1,15] - v[0,K1,22] + v[0,K1,23] = 0
 ts_balance_0_K1_24: x[0,C1,K1,24] + x[0,C2,K1,24] - x[C1,0,K1,17]
   - x[C2,0,K1,16] - v[0,K1,23] + v[0,K1,24] = 0
 ts_balance_0_K1_25: x[0,C1,K1,25] + x[0,C2,K1,25] - x[C1,0,K1,18]
   - x[C2,0,K1,17] - v[0,K1,24] + v[0,K1,25] = 0
 ts_balance_0_K1_26: x[0,C1,K1,26] + x[0,C2,K1,26] - x[C1,0,K1,19]
   - x[C2,0,K1,18] - v[0,K1,25] + v[0,K1,26] = 0
 ts_balance_0_K1_27: x[0,C1,K1,27] + x[0,C2,K1,27] - x[C1,0,K1,20]
   - x[C2,0,K1,19] - v[0,K1,26] + v[0,K1,27] = 0
 ts_balance_0_K1_28: x[0,C1,K1,28] + x[0,C2,K1,28] - x[C1,0,K1,21]
   - x[C2,0,K1,20] - v[0,K1,27] + v[0,K1,28] = 0
 ts_balance_0_K1_29: x[0,C1,K1,29] + x[0,C2,K1,29] - x[C1,0,K1,22]
   - x[C2,0,K1,21] - v[0,K1,28] + v[0,K1,29] = 0
 ts_balance_0_K1_30: x[0,C1,K1,30] + x[0,C2,K1,30] - x[C1,0,K1,23]
   - x[C2,0,K1,22] - v[0,K1,29] + v[0,K1,30] = 0
 ts_balance_C1_K1_2: x[C1,0,K1,2] + x[C1,C2,K1,2] - v[C1,K1,1] + v[C1,K1,2]
   = 0
 ts_balance_C1_K1_3: x[C1,0,K1,3] + x[C1,C2,K1,3] - v[C1,K1,2] + v[C1,K1,3]
   = 0
 ts_balance_C1_K1_4: x[C1,0,K1,4] + x[C1,C2,K1,4] - x[C2,C1,K1,1]
   - v[C1,K1,3] + v[C1,K1,4] = 0
 ts_balance_C1_K1_5: x[C1,0,K1,5] + x[C1,C2,K1,5] - x[C2,C1,K1,2]
   - v[C1,K1,4] + v[C1,K1,5] = 0
 ts_balance_C1_K1_6: x[C1,0,K1,6] + x[C1,C2,K1,6] - x[C2,C1,K1,3]
   - v[C1,K1,5] + v[C1,K1,6] = 0
 ts_balance_C1_K1_7: x[C1,0,K1,7] + x[C1,C2,K1,7] - x[C2,C1,K1,4]
   - v[C1,K1,6] + v[C1,K1,7] = 0
 ts_balance_C1_K1_8: - x[0,C1,K1,1] + x[C1,0,K1,8] + x[C1,C2,K1,8]
   - x[C2,C1,K1,5] - v[C1,K1,7] + v[C1,K1,8] = 0
 ts_balance_C1_K1_9: - x[0,C1,K1,2] + x[C1,0,K1,9] + x[C1,C2,K1,9]
   - x[C2,C1,K1,6] - v[C1,K1,8] + v[C1,K1,9] = 0
 ts_balance_C1_K1_10: - x[0,C1,K1,3] + x[C1,0,K1,10] + x[C1,C2,K1,10]
   - x[C2,C1,K1,7] - v[C1,K1,9] + v[C1,K1,10] = 0
 ts_balance_C1_K1_11: - x[0,C1,K1,4] + x[C1,0,K1,11] + x[C1,C2,K1,11]
   - x[C2,C1,K1,8] - v[C1,K1,10] + v[C1,K1,11] = 0
 ts_balance_C1_K1_12: - x[0,C1,K1,5] + x[C1,0,K1,12] + x[C1,C2,K1,12]
   - x[C2,C1,K1,9] - v[C1,K1,11] + v[C1,K1,12] = 0
 ts_balance_C1_K1_13: - x[0,C1,K1,6] + x[C1,0,K1,13] + x[C1,C2,K1,13]
   - x[C2,C1,K1,10] - v[C1,K1,12] + v[C1,K1,13] = 0
 ts_balance_C1_K1_14: - x[0,C1,K1,7] + x[C1,0,K1,14] + x[C1,C2,K1,14]
   - x[C2,C1,K1,11] - v[C1,K1,13] + v[C1,K1,14] = 0
 ts_balance_C1_K1_15: - x[0,C1,K1,8] + x[C1,0,K1,15] + x[C1,C2,K1,15]
   - x[C2,C1,K1,12] - v[C1,K1,14] + v[C1,K1,15] = 0
 ts_balance_C1_K1_16: - x[0,C1,K1,9] + x[C1,0,K1,16] + x[C1,C2,K1,16]
   - x[C2,C1,K1,13] - v[C1,K1,15] + v[C1,K1,16] = 0
 ts_balance_C1_K1_17: - x[0,C1,K1,10] + x[C1,0,K1,17] + x[C1,C2,K1,17]
   - x[C2,C1,K1,14] - v[C1,K1,16] + v[C1,K1,17] = 0
 ts_balance_C1_K1_18: - x[0,C1,K1,11] + x[C1,0,K1,18] + x[C1,C2,K1,18]
   - x[C2,C1,K1,15] - v[C1,K1,17] + v[C1,K1,18] = 0
 ts_balance_C1_K1_19: - x[0,C1,K1,12] + x[C1,0,K1,19] + x[C1,C2,K1,19]
   - x[C2,C1,K1,16] - v[C1,K1,18] + v[C1,K1,19] = 0
 ts_balance_C1_K1_20: - x[0,C1,K1,13] + x[C1,0,K1,20] + x[C1,C2,K1,20]
   - x[C2,C1,K1,17] - v[C1,K1,19] + v[C1,K1,20] = 0
 ts_balance_C1_K1_21: - x[0,C1,K1,14] + x[C1,0,K1,21] + x[C1,C2,K1,21]
   - x[C2,C1,K1,18] - v[C1,K1,20] + v[C1,K1,21] = 0
 ts_balance_C1_K1_22: - x[0,C1,K1,15] + x[C1,0,K1,22] + x[C1,C2,K1,22]
   - x[C2,C1,K1,19] - v[C1,K1,21] + v[C1,K1,22] = 0
 ts_balance_C1_K1_23: - x[0,C1,K1,16] + x[C1,0,K1,23] + x[C1,C2,K1,23]
   - x[C2,C1,K1,20] - v[C1,K1,22] + v[C1,K1,23] = 0
 ts_balance_C1_K1_24: - x[0,C1,K1,17] + x[C1,0,K1,24] + x[C1,C2,K1,24]
   - x[C2,C1,K1,21] - v[C1,K1,23] + v[C1,K1,24] = 0
 ts_balance_C1_K1_25: - x[0,C1,K1,18] + x[C1,0,K1,25] + x[C1,C2,K1,25]
   - x[C2,C1,K1,22] - v[C1,K1,24] + v[C1,K1,25] = 0
 ts_balance_C1_K1_26: - x[0,C1,K1,19] + x[C1,0,K1,26] + x[C1,C2,K1,26]
   - x[C2,C1,K1,23] - v[C1,K1,25] + v[C1,K1,26] = 0
 ts_balance_C1_K1_27: - x[0,C1,K1,20] + x[C1,0,K1,27] + x[C1,C2,K1,27]
   - x[C2,C1,K1,24] - v[C1,K1,26] + v[C1,K1,27] = 0
 ts_balance_C1_K1_28: - x[0,C1,K1,21] + x[C1,0,K1,28] + x[C1,C2,K1,28]
   - x[C2,C1,K1,25] - v[C1,K1,27] + v[C1,K1,28] = 0
 ts_balance_C1_K1_29: - x[0,C1,K1,22] + x[C1,0,K1,29] + x[C1,C2,K1,29]
   - x[C2,C1,K1,26] - v[C1,K1,28] + v[C1,K1,29] = 0
 ts_balance_C1_K1_30: - x[0,C1,K1,23] + x[C1,0,K1,30] + x[C1,C2,K1,30]
   - x[C2,C1,K1,27] - v[C1,K1,29] + v[C1,K1,30] = 0
 ts_balance_C2_K1_2: x[C2,0,K1,2] + x[C2,C1,K1,2] - v[C2,K1,1] + v[C2,K1,2]
   = 0
 ts_balance_C2_K1_3: x[C2,0,K1,3] + x[C2,C1,K1,3] - v[C2,K1,2] + v[C2,K1,3]
   = 0
 ts_balance_C2_K1_4: - x[C1,C2,K1,1] + x[C2,0,K1,4] + x[C2,C1,K1,4]
   - v[C2,K1,3] + v[C2,K1,4] = 0
 ts_balance_C2_K1_5: - x[C1,C2,K1,2] + x[C2,0,K1,5] + x[C2,C1,K1,5]
   - v[C2,K1,4] + v[C2,K1,5] = 0
 ts_balance_C2_K1_6: - x[C1,C2,K1,3] + x[C2,0,K1,6] + x[C2,C1,K1,6]
   - v[C2,K1,5] + v[C2,K1,6] = 0
 ts_balance_C2_K1_7: - x[C1,C2,K1,4] + x[C2,0,K1,7] + x[C2,C1,K1,7]
   - v[C2,K1,6] + v[C2,K1,7] = 0
 ts_balance_C2_K1_8: - x[C1,C2,K1,5] + x[C2,0,K1,8] + x[C2,C1,K1,8]
   - v[C2,K1,7] + v[C2,K1,8] = 0
 ts_balance_C2_K1_9: - x[0,C2,K1,1] - x[C1,C2,K1,6] + x[C2,0,K1,9]
   + x[C2,C1,K1,9] - v[C2,K1,8] + v[C2,K1,9] = 0
 ts_balance_C2_K1_10: - x[0,C2,K1,2] - x[C1,C2,K1,7] + x[C2,0,K1,10]
   + x[C2,C1,K1,10] - v[C2,K1,9] + v[C2,K1,10] = 0
 ts_balance_C2_K1_11: - x[0,C2,K1,3] - x[C1,C2,K1,8] + x[C2,0,K1,11]
   + x[C2,C1,K1,11] - v[C2,K1,10] + v[C2,K1,11] = 0
 ts_balance_C2_K1_12: - x[0,C2,K1,4] - x[C1,C2,K1,9] + x[C2,0,K1,12]
   + x[C2,C1,K1,12] - v[C2,K1,11] + v[C2,K1,12] = 0
 ts_balance_C2_K1_13: - x[0,C2,K1,5] - x[C1,C2,K1,10] + x[C2,0,K1,13]
   + x[C2,C1,K1,13] - v[C2,K1,12] + v[C2,K1,13] = 0
 ts_balance_C2_K1_14: - x[0,C2,K1,6] - x[C1,C2,K1,11] + x[C2,0,K1,14]
   + x[C2,C1,K1,14] - v[C2,K1,13] + v[C2,K1,14] = 0
 ts_balance_C2_K1_15: - x[0,C2,K1,7] - x[C1,C2,K1,12] + x[C2,0,K1,15]
   + x[C2,C1,K1,15] - v[C2,K1,14] + v[C2,K1,15] = 0
 ts_balance_C2_K1_16: - x[0,C2,K1,8] - x[C1,C2,K1,13] + x[C2,0,K1,16]
   + x[C2,C1,K1,16] - v[C2,K1,15] + v[C2,K1,16] = 0
 ts_balance_C2_K1_17: - x[0,C2,K1,9] - x[C1,C2,K1,14] + x[C2,0,K1,17]
   + x[C2,C1,K1,17] - v[C2,K1,16] + v[C2,K1,17] = 0
 ts_balance_C2_K1_18: - x[0,C2,K1,10] - x[C1,C2,K1,15] + x[C2,0,K1,18]
   + x[C2,C1,K1,18] - v[C2,K1,17] + v[C2,K1,18] = 0
 ts_balance_C2_K1_19: - x[0,C2,K1,11] - x[C1,C2,K1,16] + x[C2,0,K1,19]
   + x[C2,C1,K1,19] - v[C2,K1,18] + v[C2,K1,19] = 0
 ts_balance_C2_K1_20: - x[0,C2,K1,12] - x[C1,C2,K1,17] + x[C2,0,K1,20]
   + x[C2,C1,K1,20] - v[C2,K1,19] + v[C2,K1,20] = 0
 ts_balance_C2_K1_21: - x[0,C2,K1,13] - x[C1,C2,K1,18] + x[C2,0,K1,21]
   + x[C2,C1,K1,21] - v[C2,K1,20] + v[C2,K1,21] = 0
 ts_balance_C2_K1_22: - x[0,C2,K1,14] - x[C1,C2,K1,19] + x[C2,0,K1,22]
   + x[C2,C1,K1,22] - v[C2,K1,21] + v[C2,K1,22] = 0
 ts_balance_C2_K1_23: - x[0,C2,K1,15] - x[C1,C2,K1,20] + x[C2,0,K1,23]
   + x[C2,C1,K1,23] - v[C2,K1,22] + v[C2,K1,23] = 0
 ts_balance_C2_K1_24: - x[0,C2,K1,16] - x[C1,C2,K1,21] + x[C2,0,K1,24]
   + x[C2,C1,K1,24] - v[C2,K1,23] + v[C2,K1,24] = 0
 ts_balance_C2_K1_25: - x[0,C2,K1,17] - x[C1,C2,K1,22] + x[C2,0,K1,25]
   + x[C2,C1,K1,25] - v[C2,K1,24] + v[C2,K1,25] = 0
 ts_balance_C2_K1_26: - x[0,C2,K1,18] - x[C1,C2,K1,23] + x[C2,0,K1,26]
   + x[C2,C1,K1,26] - v[C2,K1,25] + v[C2,K1,26] = 0
 ts_balance_C2_K1_27: - x[0,C2,K1,19] - x[C1,C2,K1,24] + x[C2,0,K1,27]
   + x[C2,C1,K1,27] - v[C2,K1,26] + v[C2,K1,27] = 0
 ts_balance_C2_K1_28: - x[0,C2,K1,20] - x[C1,C2,K1,25] + x[C2,0,K1,28]
   + x[C2,C1,K1,28] - v[C2,K1,27] + v[C2,K1,28] = 0
 ts_balance_C2_K1_29: - x[0,C2,K1,21] - x[C1,C2,K1,26] + x[C2,0,K1,29]
   + x[C2,C1,K1,29] - v[C2,K1,28] + v[C2,K1,29] = 0
 ts_balance_C2_K1_30: - x[0,C2,K1,22] - x[C1,C2,K1,27] + x[C2,0,K1,30]
   + x[C2,C1,K1,30] - v[C2,K1,29] + v[C2,K1,30] = 0
 ts_balance_0_K2_2: x[0,C1,K2,2] + x[0,C2,K2,2] - v[0,K2,1] + v[0,K2,2]
   = 0
 ts_balance_0_K2_3: x[0,C1,K2,3] + x[0,C2,K2,3] - v[0,K2,2] + v[0,K2,3]
   = 0
 ts_balance_0_K2_4: x[0,C1,K2,4] + x[0,C2,K2,4] - v[0,K2,3] + v[0,K2,4]
   = 0
 ts_balance_0_K2_5: x[0,C1,K2,5] + x[0,C2,K2,5] - v[0,K2,4] + v[0,K2,5]
   = 0
 ts_balance_0_K2_6: x[0,C1,K2,6] + x[0,C2,K2,6] - v[0,K2,5] + v[0,K2,6]
   = 0
 ts_balance_0_K2_7: x[0,C1,K2,7] + x[0,C2,K2,7] - v[0,K2,6] + v[0,K2,7]
   = 0
 ts_balance_0_K2_8: x[0,C1,K2,8] + x[0,C2,K2,8] - x[C1,0,K2,1] - v[0,K2,7]
   + v[0,K2,8] = 0
 ts_balance_0_K2_9: x[0,C1,K2,9] + x[0,C2,K2,9] - x[C1,0,K2,2]
   - x[C2,0,K2,1] - v[0,K2,8] + v[0,K2,9] = 0
 ts_balance_0_K2_10: x[0,C1,K2,10] + x[0,C2,K2,10] - x[C1,0,K2,3]
   - x[C2,0,K2,2] - v[0,K2,9] + v[0,K2,10] = 0
 ts_balance_0_K2_11: x[0,C1,K2,11] + x[0,C2,K2,11] - x[C1,0,K2,4]
   - x[C2,0,K2,3] - v[0,K2,10] + v[0,K2,11] = 0
 ts_balance_0_K2_12: x[0,C1,K2,12] + x[0,C2,K2,12] - x[C1,0,K2,5]
   - x[C2,0,K2,4] - v[0,K2,11] + v[0,K2,12] = 0
 ts_balance_0_K2_13: x[0,C1,K2,13] + x[0,C2,K2,13] - x[C1,0,K2,6]
   - x[C2,0,K2,5] - v[0,K2,12] + v[0,K2,13] = 0
 ts_balance_0_K2_14: x[0,C1,K2,14] + x[0,C2,K2,14] - x[C1,0,K2,7]
   - x[C2,0,K2,6] - v[0,K2,13] + v[0,K2,14] = 0
 ts_balance_0_K2_15: x[0,C1,K2,15] + x[0,C2,K2,15] - x[C1,0,K2,8]
   - x[C2,0,K2,7] - v[0,K2,14] + v[0,K2,15] = 0
 ts_balance_0_K2_16: x[0,C1,K2,16] + x[0,C2,K2,16] - x[C1,0,K2,9]
   - x[C2,0,K2,8] - v[0,K2,15] + v[0,K2,16] = 0
 ts_balance_0_K2_17: x[0,C1,K2,17] + x[0,C2,K2,17] - x[C1,0,K2,10]
   - x[C2,0,K2,9] - v[0,K2,16] + v[0,K2,17] = 0
 ts_balance_0_K2_18: x[0,C1,K2,18] + x[0,C2,K2,18] - x[C1,0,K2,11]
   - x[C2,0,K2,10] - v[0,K2,17] + v[0,K2,18] = 0
 ts_balance_0_K2_19: x[0,C1,K2,19] + x[0,C2,K2,19] - x[C1,0,K2,12]
   - x[C2,0,K2,11] - v[0,K2,18] + v[0,K2,19] = 0
 ts_balance_0_K2_20: x[0,C1,K2,20] + x[0,C2,K2,20] - x[C1,0,K2,13]
   - x[C2,0,K2,12] - v[0,K2,19] + v[0,K2,20] = 0
 ts_balance_0_K2_21: x[0,C1,K2,21] + x[0,C2,K2,21] - x[C1,0,K2,14]
   - x[C2,0,K2,13] - v[0,K2,20] + v[0,K2,21] = 0
 ts_balance_0_K2_22: x[0,C1,K2,22] + x[0,C2,K2,22] - x[C1,0,K2,15]
   - x[C2,0,K2,14] - v[0,K2,21] + v[0,K2,22] = 0
 ts_balance_0_K2_23: x[0,C1,K2,23] + x[0,C2,K2,23] - x[C1,0,K2,16]
   - x[C2,0,K2,15] - v[0,K2,22] + v[0,K2,23] = 0
 ts_balance_0_K2_24: x[0,C1,K2,24] + x[0,C2,K2,24] - x[C1,0,K2,17]
   - x[C2,0,K2,16] - v[0,K2,23] + v[0,K2,24] = 0
 ts_balance_0_K2_25: x[0,C1,K2,25] + x[0,C2,K2,25] - x[C1,0,K2,18]
   - x[C2,0,K2,17] - v[0,K2,24] + v[0,K2,25] = 0
 ts_balance_0_K2_26: x[0,C1,K2,26] + x[0,C2,K2,26] - x[C1,0,K2,19]
   - x[C2,0,K2,18] - v[0,K2,25] + v[0,K2,26] = 0
 ts_balance_0_K2_27: x[0,C1,K2,27] + x[0,C2,K2,27] - x[C1,0,K2,20]
   - x[C2,0,K2,19] - v[0,K2,26] + v[0,K2,27] = 0
 ts_balance_0_K2_28: x[0,C1,K2,28] + x[0,C2,K2,28] - x[C1,0,K2,21]
   - x[C2,0,K2,20] - v[0,K2,27] + v[0,K2,28] = 0
 ts_balance_0_K2_29: x[0,C1,K2,29] + x[0,C2,K2,29] - x[C1,0,K2,22]
   - x[C2,0,K2,21] - v[0,K2,28] + v[0,K2,29] = 0
 ts_balance_0_K2_30: x[0,C1,K2,30] + x[0,C2,K2,30] - x[C1,0,K2,23]
   - x[C2,0,K2,22] - v[0,K2,29] + v[0,K2,30] = 0
 ts_balance_C1_K2_2: x[C1,0,K2,2] + x[C1,C2,K2,2] - v[C1,K2,1] + v[C1,K2,2]
   = 0
 ts_balance_C1_K2_3: x[C1,0,K2,3] + x[C1,C2,K2,3] - v[C1,K2,2] + v[C1,K2,3]
   = 0
 ts_balance_C1_K2_4: x[C1,0,K2,4] + x[C1,C2,K2,4] - x[C2,C1,K2,1]
   - v[C1,K2,3] + v[C1,K2,4] = 0
 ts_balance_C1_K2_5: x[C1,0,K2,5] + x[C1,C2,K2,5] - x[C2,C1,K2,2]
   - v[C1,K2,4] + v[C1,K2,5] = 0
 ts_balance_C1_K2_6: x[C1,0,K2,6] + x[C1,C2,K2,6] - x[C2,C1,K2,3]
   - v[C1,K2,5] + v[C1,K2,6] = 0
 ts_balance_C1_K2_7: x[C1,0,K2,7] + x[C1,C2,K2,7] - x[C2,C1,K2,4]
   - v[C1,K2,6] + v[C1,K2,7] = 0
 ts_balance_C1_K2_8: - x[0,C1,K2,1] + x[C1,0,K2,8] + x[C1,C2,K2,8]
   - x[C2,C1,K2,5] - v[C1,K2,7] + v[C1,K2,8] = 0
 ts_balance_C1_K2_9: - x[0,C1,K2,2] + x[C1,0,K2,9] + x[C1,C2,K2,9]
   - x[C2,C1,K2,6] - v[C1,K2,8] + v[C1,K2,9] = 0
 ts_balance_C1_K2_10: - x[0,C1,K2,3] + x[C1,0,K2,10] + x[C1,C2,K2,10]
   - x[C2,C1,K2,7] - v[C1,K2,9] + v[C1,K2,10] = 0
 ts_balance_C1_K2_11: - x[0,C1,K2,4] + x[C1,0,K2,11] + x[C1,C2,K2,11]
   - x[C2,C1,K2,8] - v[C1,K2,10] + v[C1,K2,11] = 0
 ts_balance_C1_K2_12: - x[0,C1,K2,5] + x[C1,0,K2,12] + x[C1,C2,K2,12]
   - x[C2,C1,K2,9] - v[C1,K2,11] + v[C1,K2,12] = 0
 ts_balance_C1_K2_13: - x[0,C1,K2,6] + x[C1,0,K2,13] + x[C1,C2,K2,13]
   - x[C2,C1,K2,10] - v[C1,K2,12] + v[C1,K2,13] = 0
 ts_balance_C1_K2_14: - x[0,C1,K2,7] + x[C1,0,K2,14] + x[C1,C2,K2,14]
   - x[C2,C1,K2,11] - v[C1,K2,13] + v[C1,K2,14] = 0
 ts_balance_C1_K2_15: - x[0,C1,K2,8] + x[C1,0,K2,15] + x[C1,C2,K2,15]
   - x[C2,C1,K2,12] - v[C1,K2,14] + v[C1,K2,15] = 0
 ts_balance_C1_K2_16: - x[0,C1,K2,9] + x[C1,0,K2,16] + x[C1,C2,K2,16]
   - x[C2,C1,K2,13] - v[C1,K2,15] + v[C1,K2,16] = 0
 ts_balance_C1_K2_17: - x[0,C1,K2,10] + x[C1,0,K2,17] + x[C1,C2,K2,17]
   - x[C2,C1,K2,14] - v[C1,K2,16] + v[C1,K2,17] = 0
 ts_balance_C1_K2_18: - x[0,C1,K2,11] + x[C1,0,K2,18] + x[C1,C2,K2,18]
   - x[C2,C1,K2,15] - v[C1,K2,17] + v[C1,K2,18] = 0
 ts_balance_C1_K2_19: - x[0,C1,K2,12] + x[C1,0,K2,19] + x[C1,C2,K2,19]
   - x[C2,C1,K2,16] - v[C1,K2,18] + v[C1,K2,19] = 0
 ts_balance_C1_K2_20: - x[0,C1,K2,13] + x[C1,0,K2,20] + x[C1,C2,K2,20]
   - x[C2,C1,K2,17] - v[C1,K2,19] + v[C1,K2,20] = 0
 ts_balance_C1_K2_21: - x[0,C1,K2,14] + x[C1,0,K2,21] + x[C1,C2,K2,21]
   - x[C2,C1,K2,18] - v[C1,K2,20] + v[C1,K2,21] = 0
 ts_balance_C1_K2_22: - x[0,C1,K2,15] + x[C1,0,K2,22] + x[C1,C2,K2,22]
   - x[C2,C1,K2,19] - v[C1,K2,21] + v[C1,K2,22] = 0
 ts_balance_C1_K2_23: - x[0,C1,K2,16] + x[C1,0,K2,23] + x[C1,C2,K2,23]
   - x[C2,C1,K2,20] - v[C1,K2,22] + v[C1,K2,23] = 0
 ts_balance_C1_K2_24: - x[0,C1,K2,17] + x[C1,0,K2,24] + x[C1,C2,K2,24]
   - x[C2,C1,K2,21] - v[C1,K2,23] + v[C1,K2,24] = 0
 ts_balance_C1_K2_25: - x[0,C1,K2,18] + x[C1,0,K2,25] + x[C1,C2,K2,25]
   - x[C2,C1,K2,22] - v[C1,K2,24] + v[C1,K2,25] = 0
 ts_balance_C1_K2_26: - x[0,C1,K2,19] + x[C1,0,K2,26] + x[C1,C2,K2,26]
   - x[C2,C1,K2,23] - v[C1,K2,25] + v[C1,K2,26] = 0
 ts_balance_C1_K2_27: - x[0,C1,K2,20] + x[C1,0,K2,27] + x[C1,C2,K2,27]
   - x[C2,C1,K2,24] - v[C1,K2,26] + v[C1,K2,27] = 0
 ts_balance_C1_K2_28: - x[0,C1,K2,21] + x[C1,0,K2,28] + x[C1,C2,K2,28]
   - x[C2,C1,K2,25] - v[C1,K2,27] + v[C1,K2,28] = 0
 ts_balance_C1_K2_29: - x[0,C1,K2,22] + x[C1,0,K2,29] + x[C1,C2,K2,29]
   - x[C2,C1,K2,26] - v[C1,K2,28] + v[C1,K2,29] = 0
 ts_balance_C1_K2_30: - x[0,C1,K2,23] + x[C1,0,K2,30] + x[C1,C2,K2,30]
   - x[C2,C1,K2,27] - v[C1,K2,29] + v[C1,K2,30] = 0
 ts_balance_C2_K2_2: x[C2,0,K2,2] + x[C2,C1,K2,2] - v[C2,K2,1] + v[C2,K2,2]
   = 0
 ts_balance_C2_K2_3: x[C2,0,K2,3] + x[C2,C1,K2,3] - v[C2,K2,2] + v[C2,K2,3]
   = 0
 ts_balance_C2_K2_4: - x[C1,C2,K2,1] + x[C2,0,K2,4] + x[C2,C1,K2,4]
   - v[C2,K2,3] + v[C2,K2,4] = 0
 ts_balance_C2_K2_5: - x[C1,C2,K2,2] + x[C2,0,K2,5] + x[C2,C1,K2,5]
   - v[C2,K2,4] + v[C2,K2,5] = 0
 ts_balance_C2_K2_6: - x[C1,C2,K2,3] + x[C2,0,K2,6] + x[C2,C1,K2,6]
   - v[C2,K2,5] + v[C2,K2,6] = 0
 ts_balance_C2_K2_7: - x[C1,C2,K2,4] + x[C2,0,K2,7] + x[C2,C1,K2,7]
   - v[C2,K2,6] + v[C2,K2,7] = 0
 ts_balance_C2_K2_8: - x[C1,C2,K2,5] + x[C2,0,K2,8] + x[C2,C1,K2,8]
   - v[C2,K2,7] + v[C2,K2,8] = 0
 ts_balance_C2_K2_9: - x[0,C2,K2,1] - x[C1,C2,K2,6] + x[C2,0,K2,9]
   + x[C2,C1,K2,9] - v[C2,K2,8] + v[C2,K2,9] = 0
 ts_balance_C2_K2_10: - x[0,C2,K2,2] - x[C1,C2,K2,7] + x[C2,0,K2,10]
   + x[C2,C1,K2,10] - v[C2,K2,9] + v[C2,K2,10] = 0
 ts_balance_C2_K2_11: - x[0,C2,K2,3] - x[C1,C2,K2,8] + x[C2,0,K2,11]
   + x[C2,C1,K2,11] - v[C2,K2,10] + v[C2,K2,11] = 0
 ts_balance_C2_K2_12: - x[0,C2,K2,4] - x[C1,C2,K2,9] + x[C2,0,K2,12]
   + x[C2,C1,K2,12] - v[C2,K2,11] + v[C2,K2,12] = 0
 ts_balance_C2_K2_13: - x[0,C2,K2,5] - x[C1,C2,K2,10] + x[C2,0,K2,13]
   + x[C2,C1,K2,13] - v[C2,K2,12] + v[C2,K2,13] = 0
 ts_balance_C2_K2_14: - x[0,C2,K2,6] - x[C1,C2,K2,11] + x[C2,0,K2,14]
   + x[C2,C1,K2,14] - v[C2,K2,13] + v[C2,K2,14] = 0
 ts_balance_C2_K2_15: - x[0,C2,K2,7] - x[C1,C2,K2,12] + x[C2,0,K2,15]
   + x[C2,C1,K2,15] - v[C2,K2,14] + v[C2,K2,15] = 0
 ts_balance_C2_K2_16: - x[0,C2,K2,8] - x[C1,C2,K2,13] + x[C2,0,K2,16]
   + x[C2,C1,K2,16] - v[C2,K2,15] + v[C2,K2,16] = 0
 ts_balance_C2_K2_17: - x[0,C2,K2,9] - x[C1,C2,K2,14] + x[C2,0,K2,17]
   + x[C2,C1,K2,17] - v[C2,K2,16] + v[C2,K2,17] = 0
 ts_balance_C2_K2_18: - x[0,C2,K2,10] - x[C1,C2,K2,15] + x[C2,0,K2,18]
   + x[C2,C1,K2,18] - v[C2,K2,17] + v[C2,K2,18] = 0
 ts_balance_C2_K2_19: - x[0,C2,K2,11] - x[C1,C2,K2,16] + x[C2,0,K2,19]
   + x[C2,C1,K2,19] - v[C2,K2,18] + v[C2,K2,19] = 0
 ts_balance_C2_K2_20: - x[0,C2,K2,12] - x[C1,C2,K2,17] + x[C2,0,K2,20]
   + x[C2,C1,K2,20] - v[C2,K2,19] + v[C2,K2,20] = 0
 ts_balance_C2_K2_21: - x[0,C2,K2,13] - x[C1,C2,K2,18] + x[C2,0,K2,21]
   + x[C2,C1,K2,21] - v[C2,K2,20] + v[C2,K2,21] = 0
 ts_balance_C2_K2_22: - x[0,C2,K2,14] - x[C1,C2,K2,19] + x[C2,0,K2,22]
   + x[C2,C1,K2,22] - v[C2,K2,21] + v[C2,K2,22] = 0
 ts_balance_C2_K2_23: - x[0,C2,K2,15] - x[C1,C2,K2,20] + x[C2,0,K2,23]
   + x[C2,C1,K2,23] - v[C2,K2,22] + v[C2,K2,23] = 0
 ts_balance_C2_K2_24: - x[0,C2,K2,16] - x[C1,C2,K2,21] + x[C2,0,K2,24]
   + x[C2,C1,K2,24] - v[C2,K2,23] + v[C2,K2,24] = 0
 ts_balance_C2_K2_25: - x[0,C2,K2,17] - x[C1,C2,K2,22] + x[C2,0,K2,25]
   + x[C2,C1,K2,25] - v[C2,K2,24] + v[C2,K2,25] = 0
 ts_balance_C2_K2_26: - x[0,C2,K2,18] - x[C1,C2,K2,23] + x[C2,0,K2,26]
   + x[C2,C1,K2,26] - v[C2,K2,25] + v[C2,K2,26] = 0
 ts_balance_C2_K2_27: - x[0,C2,K2,19] - x[C1,C2,K2,24] + x[C2,0,K2,27]
   + x[C2,C1,K2,27] - v[C2,K2,26] + v[C2,K2,27] = 0
 ts_balance_C2_K2_28: - x[0,C2,K2,20] - x[C1,C2,K2,25] + x[C2,0,K2,28]
   + x[C2,C1,K2,28] - v[C2,K2,27] + v[C2,K2,28] = 0
 ts_balance_C2_K2_29: - x[0,C2,K2,21] - x[C1,C2,K2,26] + x[C2,0,K2,29]
   + x[C2,C1,K2,29] - v[C2,K2,28] + v[C2,K2,29] = 0
 ts_balance_C2_K2_30: - x[0,C2,K2,22] - x[C1,C2,K2,27] + x[C2,0,K2,30]
   + x[C2,C1,K2,30] - v[C2,K2,29] + v[C2,K2,30] = 0
 visit_K1: v[C1,K1,1] + v[C1,K1,2] + v[C1,K1,3] + v[C1,K1,4] + v[C1,K1,5]
   + v[C1,K1,6] + v[C1,K1,7] + v[C1,K1,8] + v[C1,K1,9] + v[C1,K1,10]
   + v[C1,K1,11] + v[C1,K1,12] + v[C1,K1,13] + v[C1,K1,14] + v[C1,K1,15]
   + v[C1,K1,16] + v[C1,K1,17] + v[C1,K1,18] + v[C1,K1,19] + v[C1,K1,20]
   + v[C1,K1,21] + v[C1,K1,22] + v[C1,K1,23] + v[C1,K1,24] + v[C1,K1,25]
   + v[C1,K1,26] + v[C1,K1,27] + v[C1,K1,28] + v[C1,K1,29] + v[C1,K1,30]
   >= 2
 unload_time_K1: z[K1,1] + z[K1,2] + z[K1,3] + z[K1,4] + z[K1,5] + z[K1,6]
   + z[K1,7] + z[K1,8] + z[K1,9] + z[K1,10] + z[K1,11] + z[K1,12]
   + z[K1,13] + z[K1,14] + z[K1,15] + z[K1,16] + z[K1,17] + z[K1,18]
   + z[K1,19] + z[K1,20] + z[K1,21] + z[K1,22] + z[K1,23] + z[K1,24]
   + z[K1,25] + z[K1,26] + z[K1,27] + z[K1,28] + z[K1,29] + z[K1,30] = 2
 z_act_K1_1: - v[C1,K1,1] + z[K1,1] <= 0
 z_act_K1_2: - v[C1,K1,2] + z[K1,2] <= 0
 z_act_K1_3: - v[C1,K1,3] + z[K1,3] <= 0
 z_act_K1_4: - v[C1,K1,4] + z[K1,4] <= 0
 z_act_K1_5: - v[C1,K1,5] + z[K1,5] <= 0
 z_act_K1_6: - v[C1,K1,6] + z[K1,6] <= 0
 z_act_K1_7: - v[C1,K1,7] + z[K1,7] <= 0
 z_act_K1_8: - v[C1,K1,8] + z[K1,8] <= 0
 z_act_K1_9: - v[C1,K1,9] + z[K1,9] <= 0
 z_act_K1_10: - v[C1,K1,10] + z[K1,10] <= 0
 z_act_K1_11: - v[C1,K1,11] + z[K1,11] <= 0
 z_act_K1_12: - v[C1,K1,12] + z[K1,12] <= 0
 z_act_K1_13: - v[C1,K1,13] + z[K1,13] <= 0
 z_act_K1_14: - v[C1,K1,14] + z[K1,14] <= 0
 z_act_K1_15: - v[C1,K1,15] + z[K1,15] <= 0
 z_act_K1_16: - v[C1,K1,16] + z[K1,16] <= 0
 z_act_K1_17: - v[C1,K1,17] + z[K1,17] <= 0
 z_act_K1_18: - v[C1,K1,18] + z[K1,18] <= 0
 z_act_K1_19: - v[C1,K1,19] + z[K1,19] <= 0
 z_act_K1_20: - v[C1,K1,20] + z[K1,20] <= 0
 z_act_K1_21: - v[C1,K1,21] + z[K1,21] <= 0
 z_act_K1_22: - v[C1,K1,22] + z[K1,22] <= 0
 z_act_K1_23: - v[C1,K1,23] + z[K1,23] <= 0
 z_act_K1_24: - v[C1,K1,24] + z[K1,24] <= 0
 z_act_K1_25: - v[C1,K1,25] + z[K1,25] <= 0
 z_act_K1_26: - v[C1,K1,26] + z[K1,26] <= 0
 z_act_K1_27: - v[C1,K1,27] + z[K1,27] <= 0
 z_act_K1_28: - v[C1,K1,28] + z[K1,28] <= 0
 z_act_K1_29: - v[C1,K1,29] + z[K1,29] <= 0
 z_act_K1_30: - v[C1,K1,30] + z[K1,30] <= 0
 visit_K2: v[C2,K2,1] + v[C2,K2,2] + v[C2,K2,3] + v[C2,K2,4] + v[C2,K2,5]
   + v[C2,K2,6] + v[C2,K2,7] + v[C2,K2,8] + v[C2,K2,9] + v[C2,K2,10]
   + v[C2,K2,11] + v[C2,K2,12] + v[C2,K2,13] + v[C2,K2,14] + v[C2,K2,15]
   + v[C2,K2,16] + v[C2,K2,17] + v[C2,K2,18] + v[C2,K2,19] + v[C2,K2,20]
   + v[C2,K2,21] + v[C2,K2,22] + v[C2,K2,23] + v[C2,K2,24] + v[C2,K2,25]
   + v[C2,K2,26] + v[C2,K2,27] + v[C2,K2,28] + v[C2,K2,29] + v[C2,K2,30]
   >= 2
 unload_time_K2: z[K2,1] + z[K2,2] + z[K2,3] + z[K2,4] + z[K2,5] + z[K2,6]
   + z[K2,7] + z[K2,8] + z[K2,9] + z[K2,10] + z[K2,11] + z[K2,12]
   + z[K2,13] + z[K2,14] + z[K2,15] + z[K2,16] + z[K2,17] + z[K2,18]
   + z[K2,19] + z[K2,20] + z[K2,21] + z[K2,22] + z[K2,23] + z[K2,24]
   + z[K2,25] + z[K2,26] + z[K2,27] + z[K2,28] + z[K2,29] + z[K2,30] = 2
 z_act_K2_1: - v[C2,K2,1] + z[K2,1] <= 0
 z_act_K2_2: - v[C2,K2,2] + z[K2,2] <= 0
 z_act_K2_3: - v[C2,K2,3] + z[K2,3] <= 0
 z_act_K2_4: - v[C2,K2,4] + z[K2,4] <= 0
 z_act_K2_5: - v[C2,K2,5] + z[K2,5] <= 0
 z_act_K2_6: - v[C2,K2,6] + z[K2,6] <= 0
 z_act_K2_7: - v[C2,K2,7] + z[K2,7] <= 0
 z_act_K2_8: - v[C2,K2,8] + z[K2,8] <= 0
 z_act_K2_9: - v[C2,K2,9] + z[K2,9] <= 0
 z_act_K2_10: - v[C2,K2,10] + z[K2,10] <= 0
 z_act_K2_11: - v[C2,K2,11] + z[K2,11] <= 0
 z_act_K2_12: - v[C2,K2,12] + z[K2,12] <= 0
 z_act_K2_13: - v[C2,K2,13] + z[K2,13] <= 0
 z_act_K2_14: - v[C2,K2,14] + z[K2,14] <= 0
 z_act_K2_15: - v[C2,K2,15] + z[K2,15] <= 0
 z_act_K2_16: - v[C2,K2,16] + z[K2,16] <= 0
 z_act_K2_17: - v[C2,K2,17] + z[K2,17] <= 0
 z_act_K2_18: - v[C2,K2,18] + z[K2,18] <= 0
 z_act_K2_19: - v[C2,K2,19] + z[K2,19] <= 0
 z_act_K2_20: - v[C2,K2,20] + z[K2,20] <= 0
 z_act_K2_21: - v[C2,K2,21] + z[K2,21] <= 0
 z_act_K2_22: - v[C2,K2,22] + z[K2,22] <= 0
 z_act_K2_23: - v[C2,K2,23] + z[K2,23] <= 0
 z_act_K2_24: - v[C2,K2,24] + z[K2,24] <= 0
 z_act_K2_25: - v[C2,K2,25] + z[K2,25] <= 0
 z_act_K2_26: - v[C2,K2,26] + z[K2,26] <= 0
 z_act_K2_27: - v[C2,K2,27] + z[K2,27] <= 0
 z_act_K2_28: - v[C2,K2,28] + z[K2,28] <= 0
 z_act_K2_29: - v[C2,K2,29] + z[K2,29] <= 0
 z_act_K2_30: - v[C2,K2,30] + z[K2,30] <= 0
 snk_dest_K1_1: - v[C1,K1,1] - 4 z[K1,1] + f[0,C1,K1,1] - f[C1,0,K1,1]
   - f[C1,C2,K1,1] + f[C2,C1,K1,1] = 0
 src_flow_K1_1: - 4 z[K1,1] + f[0,C1,K1,1] + f[0,C2,K1,1] - f[C1,0,K1,1]
   - f[C2,0,K1,1] = 1
 snk_mid_C2_K1_1: - v[C2,K1,1] + f[0,C2,K1,1] + f[C1,C2,K1,1]
   - f[C2,0,K1,1] - f[C2,C1,K1,1] = 0
 snk_dest_K1_2: - v[C1,K1,2] - 4 z[K1,2] + f[0,C1,K1,2] - f[C1,0,K1,2]
   - f[C1,C2,K1,2] + f[C2,C1,K1,2] = 0
 src_flow_K1_2: - 4 z[K1,2] + f[0,C1,K1,2] + f[0,C2,K1,2] - f[C1,0,K1,2]
   - f[C2,0,K1,2] = 1
 snk_mid_C2_K1_2: - v[C2,K1,2] + f[0,C2,K1,2] + f[C1,C2,K1,2]
   - f[C2,0,K1,2] - f[C2,C1,K1,2] = 0
 snk_dest_K1_3: - v[C1,K1,3] - 4 z[K1,3] + f[0,C1,K1,3] - f[C1,0,K1,3]
   - f[C1,C2,K1,3] + f[C2,C1,K1,3] = 0
 src_flow_K1_3: - 4 z[K1,3] + f[0,C1,K1,3] + f[0,C2,K1,3] - f[C1,0,K1,3]
   - f[C2,0,K1,3] = 1
 snk_mid_C2_K1_3: - v[C2,K1,3] + f[0,C2,K1,3] + f[C1,C2,K1,3]
   - f[C2,0,K1,3] - f[C2,C1,K1,3] = 0
 snk_dest_K1_4: - v[C1,K1,4] - 4 z[K1,4] + f[0,C1,K1,4] - f[C1,0,K1,4]
   - f[C1,C2,K1,4] + f[C2,C1,K1,4] = 0
 src_flow_K1_4: - 4 z[K1,4] + f[0,C1,K1,4] + f[0,C2,K1,4] - f[C1,0,K1,4]
   - f[C2,0,K1,4] = 1
 snk_mid_C2_K1_4: - v[C2,K1,4] + f[0,C2,K1,4] + f[C1,C2,K1,4]
   - f[C2,0,K1,4] - f[C2,C1,K1,4] = 0
 snk_dest_K1_5: - v[C1,K1,5] - 4 z[K1,5] + f[0,C1,K1,5] - f[C1,0,K1,5]
   - f[C1,C2,K1,5] + f[C2,C1,K1,5] = 0
 src_flow_K1_5: - 4 z[K1,5] + f[0,C1,K1,5] + f[0,C2,K1,5] - f[C1,0,K1,5]
   - f[C2,0,K1,5] = 1
 snk_mid_C2_K1_5: - v[C2,K1,5] + f[0,C2,K1,5] + f[C1,C2,K1,5]
   - f[C2,0,K1,5] - f[C2,C1,K1,5] = 0
 snk_dest_K1_6: - v[C1,K1,6] - 4 z[K1,6] + f[0,C1,K1,6] - f[C1,0,K1,6]
   - f[C1,C2,K1,6] + f[C2,C1,K1,6] = 0
 src_flow_K1_6: - 4 z[K1,6] + f[0,C1,K1,6] + f[0,C2,K1,6] - f[C1,0,K1,6]
   - f[C2,0,K1,6] = 1
 snk_mid_C2_K1_6: - v[C2,K1,6] + f[0,C2,K1,6] + f[C1,C2,K1,6]
   - f[C2,0,K1,6] - f[C2,C1,K1,6] = 0
 snk_dest_K1_7: - v[C1,K1,7] - 4 z[K1,7] + f[0,C1,K1,7] - f[C1,0,K1,7]
   - f[C1,C2,K1,7] + f[C2,C1,K1,7] = 0
 src_flow_K1_7: - 4 z[K1,7] + f[0,C1,K1,7] + f[0,C2,K1,7] - f[C1,0,K1,7]
   - f[C2,0,K1,7] = 1
 snk_mid_C2_K1_7: - v[C2,K1,7] + f[0,C2,K1,7] + f[C1,C2,K1,7]
   - f[C2,0,K1,7] - f[C2,C1,K1,7] = 0
 snk_dest_K1_8: - v[C1,K1,8] - 4 z[K1,8] + f[0,C1,K1,8] - f[C1,0,K1,8]
   - f[C1,C2,K1,8] + f[C2,C1,K1,8] = 0
 src_flow_K1_8: - 4 z[K1,8] + f[0,C1,K1,8] + f[0,C2,K1,8] - f[C1,0,K1,8]
   - f[C2,0,K1,8] = 1
 snk_mid_C2_K1_8: - v[C2,K1,8] + f[0,C2,K1,8] + f[C1,C2,K1,8]
   - f[C2,0,K1,8] - f[C2,C1,K1,8] = 0
 snk_dest_K1_9: - v[C1,K1,9] - 4 z[K1,9] + f[0,C1,K1,9] - f[C1,0,K1,9]
   - f[C1,C2,K1,9] + f[C2,C1,K1,9] = 0
 src_flow_K1_9: - 4 z[K1,9] + f[0,C1,K1,9] + f[0,C2,K1,9] - f[C1,0,K1,9]
   - f[C2,0,K1,9] = 1
 snk_mid_C2_K1_9: - v[C2,K1,9] + f[0,C2,K1,9] + f[C1,C2,K1,9]
   - f[C2,0,K1,9] - f[C2,C1,K1,9] = 0
 snk_dest_K1_10: - v[C1,K1,10] - 4 z[K1,10] + f[0,C1,K1,10] - f[C1,0,K1,10]
   - f[C1,C2,K1,10] + f[C2,C1,K1,10] = 0
 src_flow_K1_10: - 4 z[K1,10] + f[0,C1,K1,10] + f[0,C2,K1,10]
   - f[C1,0,K1,10] - f[C2,0,K1,10] = 1
 snk_mid_C2_K1_10: - v[C2,K1,10] + f[0,C2,K1,10] + f[C1,C2,K1,10]
   - f[C2,0,K1,10] - f[C2,C1,K1,10] = 0
 snk_dest_K1_11: - v[C1,K1,11] - 4 z[K1,11] + f[0,C1,K1,11] - f[C1,0,K1,11]
   - f[C1,C2,K1,11] + f[C2,C1,K1,11] = 0
 src_flow_K1_11: - 4 z[K1,11] + f[0,C1,K1,11] + f[0,C2,K1,11]
   - f[C1,0,K1,11] - f[C2,0,K1,11] = 1
 snk_mid_C2_K1_11: - v[C2,K1,11] + f[0,C2,K1,11] + f[C1,C2,K1,11]
   - f[C2,0,K1,11] - f[C2,C1,K1,11] = 0
 snk_dest_K1_12: - v[C1,K1,12] - 4 z[K1,12] + f[0,C1,K1,12] - f[C1,0,K1,12]
   - f[C1,C2,K1,12] + f[C2,C1,K1,12] = 0
 src_flow_K1_12: - 4 z[K1,12] + f[0,C1,K1,12] + f[0,C2,K1,12]
   - f[C1,0,K1,12] - f[C2,0,K1,12] = 1
 snk_mid_C2_K1_12: - v[C2,K1,12] + f[0,C2,K1,12] + f[C1,C2,K1,12]
   - f[C2,0,K1,12] - f[C2,C1,K1,12] = 0
 snk_dest_K1_13: - v[C1,K1,13] - 4 z[K1,13] + f[0,C1,K1,13] - f[C1,0,K1,13]
   - f[C1,C2,K1,13] + f[C2,C1,K1,13] = 0
 src_flow_K1_13: - 4 z[K1,13] + f[0,C1,K1,13] + f[0,C2,K1,13]
   - f[C1,0,K1,13] - f[C2,0,K1,13] = 1
 snk_mid_C2_K1_13: - v[C2,K1,13] + f[0,C2,K1,13] + f[C1,C2,K1,13]
   - f[C2,0,K1,13] - f[C2,C1,K1,13] = 0
 snk_dest_K1_14: - v[C1,K1,14] - 4 z[K1,14] + f[0,C1,K1,14] - f[C1,0,K1,14]
   - f[C1,C2,K1,14] + f[C2,C1,K1,14] = 0
 src_flow_K1_14: - 4 z[K1,14] + f[0,C1,K1,14] + f[0,C2,K1,14]
   - f[C1,0,K1,14] - f[C2,0,K1,14] = 1
 snk_mid_C2_K1_14: - v[C2,K1,14] + f[0,C2,K1,14] + f[C1,C2,K1,14]
   - f[C2,0,K1,14] - f[C2,C1,K1,14] = 0
 snk_dest_K1_15: - v[C1,K1,15] - 4 z[K1,15] + f[0,C1,K1,15] - f[C1,0,K1,15]
   - f[C1,C2,K1,15] + f[C2,C1,K1,15] = 0
 src_flow_K1_15: - 4 z[K1,15] + f[0,C1,K1,15] + f[0,C2,K1,15]
   - f[C1,0,K1,15] - f[C2,0,K1,15] = 1
 snk_mid_C2_K1_15: - v[C2,K1,15] + f[0,C2,K1,15] + f[C1,C2,K1,15]
   - f[C2,0,K1,15] - f[C2,C1,K1,15] = 0
 snk_dest_K1_16: - v[C1,K1,16] - 4 z[K1,16] + f[0,C1,K1,16] - f[C1,0,K1,16]
   - f[C1,C2,K1,16] + f[C2,C1,K1,16] = 0
 src_flow_K1_16: - 4 z[K1,16] + f[0,C1,K1,16] + f[0,C2,K1,16]
   - f[C1,0,K1,16] - f[C2,0,K1,16] = 1
 snk_mid_C2_K1_16: - v[C2,K1,16] + f[0,C2,K1,16] + f[C1,C2,K1,16]
   - f[C2,0,K1,16] - f[C2,C1,K1,16] = 0
 snk_dest_K1_17: - v[C1,K1,17] - 4 z[K1,17] + f[0,C1,K1,17] - f[C1,0,K1,17]
   - f[C1,C2,K1,17] + f[C2,C1,K1,17] = 0
 src_flow_K1_17: - 4 z[K1,17] + f[0,C1,K1,17] + f[0,C2,K1,17]
   - f[C1,0,K1,17] - f[C2,0,K1,17] = 1
 snk_mid_C2_K1_17: - v[C2,K1,17] + f[0,C2,K1,17] + f[C1,C2,K1,17]
   - f[C2,0,K1,17] - f[C2,C1,K1,17] = 0
 snk_dest_K1_18: - v[C1,K1,18] - 4 z[K1,18] + f[0,C1,K1,18] - f[C1,0,K1,18]
   - f[C1,C2,K1,18] + f[C2,C1,K1,18] = 0
 src_flow_K1_18: - 4 z[K1,18] + f[0,C1,K1,18] + f[0,C2,K1,18]
   - f[C1,0,K1,18] - f[C2,0,K1,18] = 1
 snk_mid_C2_K1_18: - v[C2,K1,18] + f[0,C2,K1,18] + f[C1,C2,K1,18]
   - f[C2,0,K1,18] - f[C2,C1,K1,18] = 0
 snk_dest_K1_19: - v[C1,K1,19] - 4 z[K1,19] + f[0,C1,K1,19] - f[C1,0,K1,19]
   - f[C1,C2,K1,19] + f[C2,C1,K1,19] = 0
 src_flow_K1_19: - 4 z[K1,19] + f[0,C1,K1,19] + f[0,C2,K1,19]
   - f[C1,0,K1,19] - f[C2,0,K1,19] = 1
 snk_mid_C2_K1_19: - v[C2,K1,19] + f[0,C2,K1,19] + f[C1,C2,K1,19]
   - f[C2,0,K1,19] - f[C2,C1,K1,19] = 0
 snk_dest_K1_20: - v[C1,K1,20] - 4 z[K1,20] + f[0,C1,K1,20] - f[C1,0,K1,20]
   - f[C1,C2,K1,20] + f[C2,C1,K1,20] = 0
 src_flow_K1_20: - 4 z[K1,20] + f[0,C1,K1,20] + f[0,C2,K1,20]
   - f[C1,0,K1,20] - f[C2,0,K1,20] = 1
 snk_mid_C2_K1_20: - v[C2,K1,20] + f[0,C2,K1,20] + f[C1,C2,K1,20]
   - f[C2,0,K1,20] - f[C2,C1,K1,20] = 0
 snk_dest_K1_21: - v[C1,K1,21] - 4 z[K1,21] + f[0,C1,K1,21] - f[C1,0,K1,21]
   - f[C1,C2,K1,21] + f[C2,C1,K1,21] = 0
 src_flow_K1_21: - 4 z[K1,21] + f[0,C1,K1,21] + f[0,C2,K1,21]
   - f[C1,0,K1,21] - f[C2,0,K1,21] = 1
 snk_mid_C2_K1_21: - v[C2,K1,21] + f[0,C2,K1,21] + f[C1,C2,K1,21]
   - f[C2,0,K1,21] - f[C2,C1,K1,21] = 0
 snk_dest_K1_22: - v[C1,K1,22] - 4 z[K1,22] + f[0,C1,K1,22] - f[C1,0,K1,22]
   - f[C1,C2,K1,22] + f[C2,C1,K1,22] = 0
 src_flow_K1_22: - 4 z[K1,22] + f[0,C1,K1,22] + f[0,C2,K1,22]
   - f[C1,0,K1,22] - f[C2,0,K1,22] = 1
 snk_mid_C2_K1_22: - v[C2,K1,22] + f[0,C2,K1,22] + f[C1,C2,K1,22]
   - f[C2,0,K1,22] - f[C2,C1,K1,22] = 0
 snk_dest_K1_23: - v[C1,K1,23] - 4 z[K1,23] + f[0,C1,K1,23] - f[C1,0,K1,23]
   - f[C1,C2,K1,23] + f[C2,C1,K1,23] = 0
 src_flow_K1_23: - 4 z[K1,23] + f[0,C1,K1,23] + f[0,C2,K1,23]
   - f[C1,0,K1,23] - f[C2,0,K1,23] = 1
 snk_mid_C2_K1_23: - v[C2,K1,23] + f[0,C2,K1,23] + f[C1,C2,K1,23]
   - f[C2,0,K1,23] - f[C2,C1,K1,23] = 0
 snk_dest_K1_24: - v[C1,K1,24] - 4 z[K1,24] + f[0,C1,K1,24] - f[C1,0,K1,24]
   - f[C1,C2,K1,24] + f[C2,C1,K1,24] = 0
 src_flow_K1_24: - 4 z[K1,24] + f[0,C1,K1,24] + f[0,C2,K1,24]
   - f[C1,0,K1,24] - f[C2,0,K1,24] = 1
 snk_mid_C2_K1_24: - v[C2,K1,24] + f[0,C2,K1,24] + f[C1,C2,K1,24]
   - f[C2,0,K1,24] - f[C2,C1,K1,24] = 0
 snk_dest_K1_25: - v[C1,K1,25] - 4 z[K1,25] + f[0,C1,K1,25] - f[C1,0,K1,25]
   - f[C1,C2,K1,25] + f[C2,C1,K1,25] = 0
 src_flow_K1_25: - 4 z[K1,25] + f[0,C1,K1,25] + f[0,C2,K1,25]
   - f[C1,0,K1,25] - f[C2,0,K1,25] = 1
 snk_mid_C2_K1_25: - v[C2,K1,25] + f[0,C2,K1,25] + f[C1,C2,K1,25]
   - f[C2,0,K1,25] - f[C2,C1,K1,25] = 0
 snk_dest_K1_26: - v[C1,K1,26] - 4 z[K1,26] + f[0,C1,K1,26] - f[C1,0,K1,26]
   - f[C1,C2,K1,26] + f[C2,C1,K1,26] = 0
 src_flow_K1_26: - 4 z[K1,26] + f[0,C1,K1,26] + f[0,C2,K1,26]
   - f[C1,0,K1,26] - f[C2,0,K1,26] = 1
 snk_mid_C2_K1_26: - v[C2,K1,26] + f[0,C2,K1,26] + f[C1,C2,K1,26]
   - f[C2,0,K1,26] - f[C2,C1,K1,26] = 0
 snk_dest_K1_27: - v[C1,K1,27] - 4 z[K1,27] + f[0,C1,K1,27] - f[C1,0,K1,27]
   - f[C1,C2,K1,27] + f[C2,C1,K1,27] = 0
 src_flow_K1_27: - 4 z[K1,27] + f[0,C1,K1,27] + f[0,C2,K1,27]
   - f[C1,0,K1,27] - f[C2,0,K1,27] = 1
 snk_mid_C2_K1_27: - v[C2,K1,27] + f[0,C2,K1,27] + f[C1,C2,K1,27]
   - f[C2,0,K1,27] - f[C2,C1,K1,27] = 0
 snk_dest_K1_28: - v[C1,K1,28] - 4 z[K1,28] + f[0,C1,K1,28] - f[C1,0,K1,28]
   - f[C1,C2,K1,28] + f[C2,C1,K1,28] = 0
 src_flow_K1_28: - 4 z[K1,28] + f[0,C1,K1,28] + f[0,C2,K1,28]
   - f[C1,0,K1,28] - f[C2,0,K1,28] = 1
 snk_mid_C2_K1_28: - v[C2,K1,28] + f[0,C2,K1,28] + f[C1,C2,K1,28]
   - f[C2,0,K1,28] - f[C2,C1,K1,28] = 0
 snk_dest_K1_29: - v[C1,K1,29] - 4 z[K1,29] + f[0,C1,K1,29] - f[C1,0,K1,29]
   - f[C1,C2,K1,29] + f[C2,C1,K1,29] = 0
 src_flow_K1_29: - 4 z[K1,29] + f[0,C1,K1,29] + f[0,C2,K1,29]
   - f[C1,0,K1,29] - f[C2,0,K1,29] = 1
 snk_mid_C2_K1_29: - v[C2,K1,29] + f[0,C2,K1,29] + f[C1,C2,K1,29]
   - f[C2,0,K1,29] - f[C2,C1,K1,29] = 0
 snk_dest_K1_30: - v[C1,K1,30] - 4 z[K1,30] + f[0,C1,K1,30] - f[C1,0,K1,30]
   - f[C1,C2,K1,30] + f[C2,C1,K1,30] = 0
 src_flow_K1_30: - 4 z[K1,30] + f[0,C1,K1,30] + f[0,C2,K1,30]
   - f[C1,0,K1,30] - f[C2,0,K1,30] = 1
 snk_mid_C2_K1_30: - v[C2,K1,30] + f[0,C2,K1,30] + f[C1,C2,K1,30]
   - f[C2,0,K1,30] - f[C2,C1,K1,30] = 0
 snk_dest_K2_1: - v[C2,K2,1] - 4 z[K2,1] + f[0,C2,K2,1] + f[C1,C2,K2,1]
   - f[C2,0,K2,1] - f[C2,C1,K2,1] = 0
 src_flow_K2_1: - 4 z[K2,1] + f[0,C1,K2,1] + f[0,C2,K2,1] - f[C1,0,K2,1]
   - f[C2,0,K2,1] = 1
 snk_mid_C1_K2_1: - v[C1,K2,1] + f[0,C1,K2,1] - f[C1,0,K2,1]
   - f[C1,C2,K2,1] + f[C2,C1,K2,1] = 0
 snk_dest_K2_2: - v[C2,K2,2] - 4 z[K2,2] + f[0,C2,K2,2] + f[C1,C2,K2,2]
   - f[C2,0,K2,2] - f[C2,C1,K2,2] = 0
 src_flow_K2_2: - 4 z[K2,2] + f[0,C1,K2,2] + f[0,C2,K2,2] - f[C1,0,K2,2]
   - f[C2,0,K2,2] = 1
 snk_mid_C1_K2_2: - v[C1,K2,2] + f[0,C1,K2,2] - f[C1,0,K2,2]
   - f[C1,C2,K2,2] + f[C2,C1,K2,2] = 0
 snk_dest_K2_3: - v[C2,K2,3] - 4 z[K2,3] + f[0,C2,K2,3] + f[C1,C2,K2,3]
   - f[C2,0,K2,3] - f[C2,C1,K2,3] = 0
 src_flow_K2_3: - 4 z[K2,3] + f[0,C1,K2,3] + f[0,C2,K2,3] - f[C1,0,K2,3]
   - f[C2,0,K2,3] = 1
 snk_mid_C1_K2_3: - v[C1,K2,3] + f[0,C1,K2,3] - f[C1,0,K2,3]
   - f[C1,C2,K2,3] + f[C2,C1,K2,3] = 0
 snk_dest_K2_4: - v[C2,K2,4] - 4 z[K2,4] + f[0,C2,K2,4] + f[C1,C2,K2,4]
   - f[C2,0,K2,4] - f[C2,C1,K2,4] = 0
 src_flow_K2_4: - 4 z[K2,4] + f[0,C1,K2,4] + f[0,C2,K2,4] - f[C1,0,K2,4]
   - f[C2,0,K2,4] = 1
 snk_mid_C1_K2_4: - v[C1,K2,4] + f[0,C1,K2,4] - f[C1,0,K2,4]
   - f[C1,C2,K2,4] + f[C2,C1,K2,4] = 0
 snk_dest_K2_5: - v[C2,K2,5] - 4 z[K2,5] + f[0,C2,K2,5] + f[C1,C2,K2,5]
   - f[C2,0,K2,5] - f[C2,C1,K2,5] = 0
 src_flow_K2_5: - 4 z[K2,5] + f[0,C1,K2,5] + f[0,C2,K2,5] - f[C1,0,K2,5]
   - f[C2,0,K2,5] = 1
 snk_mid_C1_K2_5: - v[C1,K2,5] + f[0,C1,K2,5] - f[C1,0,K2,5]
   - f[C1,C2,K2,5] + f[C2,C1,K2,5] = 0
 snk_dest_K2_6: - v[C2,K2,6] - 4 z[K2,6] + f[0,C2,K2,6] + f[C1,C2,K2,6]
   - f[C2,0,K2,6] - f[C2,C1,K2,6] = 0
 src_flow_K2_6: - 4 z[K2,6] + f[0,C1,K2,6] + f[0,C2,K2,6] - f[C1,0,K2,6]
   - f[C2,0,K2,6] = 1
 snk_mid_C1_K2_6: - v[C1,K2,6] + f[0,C1,K2,6] - f[C1,0,K2,6]
   - f[C1,C2,K2,6] + f[C2,C1,K2,6] = 0
 snk_dest_K2_7: - v[C2,K2,7] - 4 z[K2,7] + f[0,C2,K2,7] + f[C1,C2,K2,7]
   - f[C2,0,K2,7] - f[C2,C1,K2,7] = 0
 src_flow_K2_7: - 4 z[K2,7] + f[0,C1,K2,7] + f[0,C2,K2,7] - f[C1,0,K2,7]
   - f[C2,0,K2,7] = 1
 snk_mid_C1_K2_7: - v[C1,K2,7] + f[0,C1,K2,7] - f[C1,0,K2,7]
   - f[C1,C2,K2,7] + f[C2,C1,K2,7] = 0
 snk_dest_K2_8: - v[C2,K2,8] - 4 z[K2,8] + f[0,C2,K2,8] + f[C1,C2,K2,8]
   - f[C2,0,K2,8] - f[C2,C1,K2,8] = 0
 src_flow_K2_8: - 4 z[K2,8] + f[0,C1,K2,8] + f[0,C2,K2,8] - f[C1,0,K2,8]
   - f[C2,0,K2,8] = 1
 snk_mid_C1_K2_8: - v[C1,K2,8] + f[0,C1,K2,8] - f[C1,0,K2,8]
   - f[C1,C2,K2,8] + f[C2,C1,K2,8] = 0
 snk_dest_K2_9: - v[C2,K2,9] - 4 z[K2,9] + f[0,C2,K2,9] + f[C1,C2,K2,9]
   - f[C2,0,K2,9] - f[C2,C1,K2,9] = 0
 src_flow_K2_9: - 4 z[K2,9] + f[0,C1,K2,9] + f[0,C2,K2,9] - f[C1,0,K2,9]
   - f[C2,0,K2,9] = 1
 snk_mid_C1_K2_9: - v[C1,K2,9] + f[0,C1,K2,9] - f[C1,0,K2,9]
   - f[C1,C2,K2,9] + f[C2,C1,K2,9] = 0
 snk_dest_K2_10: - v[C2,K2,10] - 4 z[K2,10] + f[0,C2,K2,10]
   + f[C1,C2,K2,10] - f[C2,0,K2,10] - f[C2,C1,K2,10] = 0
 src_flow_K2_10: - 4 z[K2,10] + f[0,C1,K2,10] + f[0,C2,K2,10]
   - f[C1,0,K2,10] - f[C2,0,K2,10] = 1
 snk_mid_C1_K2_10: - v[C1,K2,10] + f[0,C1,K2,10] - f[C1,0,K2,10]
   - f[C1,C2,K2,10] + f[C2,C1,K2,10] = 0
 snk_dest_K2_11: - v[C2,K2,11] - 4 z[K2,11] + f[0,C2,K2,11]
   + f[C1,C2,K2,11] - f[C2,0,K2,11] - f[C2,C1,K2,11] = 0
 src_flow_K2_11: - 4 z[K2,11] + f[0,C1,K2,11] + f[0,C2,K2,11]
   - f[C1,0,K2,11] - f[C2,0,K2,11] = 1
 snk_mid_C1_K2_11: - v[C1,K2,11] + f[0,C1,K2,11] - f[C1,0,K2,11]
   - f[C1,C2,K2,11] + f[C2,C1,K2,11] = 0
 snk_dest_K2_12: - v[C2,K2,12] - 4 z[K2,12] + f[0,C2,K2,12]
   + f[C1,C2,K2,12] - f[C2,0,K2,12] - f[C2,C1,K2,12] = 0
 src_flow_K2_12: - 4 z[K2,12] + f[0,C1,K2,12] + f[0,C2,K2,12]
   - f[C1,0,K2,12] - f[C2,0,K2,12] = 1
 snk_mid_C1_K2_12: - v[C1,K2,12] + f[0,C1,K2,12] - f[C1,0,K2,12]
   - f[C1,C2,K2,12] + f[C2,C1,K2,12] = 0
 snk_dest_K2_13: - v[C2,K2,13] - 4 z[K2,13] + f[0,C2,K2,13]
   + f[C1,C2,K2,13] - f[C2,0,K2,13] - f[C2,C1,K2,13] = 0
 src_flow_K2_13: - 4 z[K2,13] + f[0,C1,K2,13] + f[0,C2,K2,13]
   - f[C1,0,K2,13] - f[C2,0,K2,13] = 1
 snk_mid_C1_K2_13: - v[C1,K2,13] + f[0,C1,K2,13] - f[C1,0,K2,13]
   - f[C1,C2,K2,13] + f[C2,C1,K2,13] = 0
 snk_dest_K2_14: - v[C2,K2,14] - 4 z[K2,14] + f[0,C2,K2,14]
   + f[C1,C2,K2,14] - f[C2,0,K2,14] - f[C2,C1,K2,14] = 0
 src_flow_K2_14: - 4 z[K2,14] + f[0,C1,K2,14] + f[0,C2,K2,14]
   - f[C1,0,K2,14] - f[C2,0,K2,14] = 1
 snk_mid_C1_K2_14: - v[C1,K2,14] + f[0,C1,K2,14] - f[C1,0,K2,14]
   - f[C1,C2,K2,14] + f[C2,C1,K2,14] = 0
 snk_dest_K2_15: - v[C2,K2,15] - 4 z[K2,15] + f[0,C2,K2,15]
   + f[C1,C2,K2,15] - f[C2,0,K2,15] - f[C2,C1,K2,15] = 0
 src_flow_K2_15: - 4 z[K2,15] + f[0,C1,K2,15] + f[0,C2,K2,15]
   - f[C1,0,K2,15] - f[C2,0,K2,15] = 1
 snk_mid_C1_K2_15: - v[C1,K2,15] + f[0,C1,K2,15] - f[C1,0,K2,15]
   - f[C1,C2,K2,15] + f[C2,C1,K2,15] = 0
 snk_dest_K2_16: - v[C2,K2,16] - 4 z[K2,16] + f[0,C2,K2,16]
   + f[C1,C2,K2,16] - f[C2,0,K2,16] - f[C2,C1,K2,16] = 0
 src_flow_K2_16: - 4 z[K2,16] + f[0,C1,K2,16] + f[0,C2,K2,16]
   - f[C1,0,K2,16] - f[C2,0,K2,16] = 1
 snk_mid_C1_K2_16: - v[C1,K2,16] + f[0,C1,K2,16] - f[C1,0,K2,16]
   - f[C1,C2,K2,16] + f[C2,C1,K2,16] = 0
 snk_dest_K2_17: - v[C2,K2,17] - 4 z[K2,17] + f[0,C2,K2,17]
   + f[C1,C2,K2,17] - f[C2,0,K2,17] - f[C2,C1,K2,17] = 0
 src_flow_K2_17: - 4 z[K2,17] + f[0,C1,K2,17] + f[0,C2,K2,17]
   - f[C1,0,K2,17] - f[C2,0,K2,17] = 1
 snk_mid_C1_K2_17: - v[C1,K2,17] + f[0,C1,K2,17] - f[C1,0,K2,17]
   - f[C1,C2,K2,17] + f[C2,C1,K2,17] = 0
 snk_dest_K2_18: - v[C2,K2,18] - 4 z[K2,18] + f[0,C2,K2,18]
   + f[C1,C2,K2,18] - f[C2,0,K2,18] - f[C2,C1,K2,18] = 0
 src_flow_K2_18: - 4 z[K2,18] + f[0,C1,K2,18] + f[0,C2,K2,18]
   - f[C1,0,K2,18] - f[C2,0,K2,18] = 1
 snk_mid_C1_K2_18: - v[C1,K2,18] + f[0,C1,K2,18] - f[C1,0,K2,18]
   - f[C1,C2,K2,18] + f[C2,C1,K2,18] = 0
 snk_dest_K2_19: - v[C2,K2,19] - 4 z[K2,19] + f[0,C2,K2,19]
   + f[C1,C2,K2,19] - f[C2,0,K2,19] - f[C2,C1,K2,19] = 0
 src_flow_K2_19: - 4 z[K2,19] + f[0,C1,K2,19] + f[0,C2,K2,19]
   - f[C1,0,K2,19] - f[C2,0,K2,19] = 1
 snk_mid_C1_K2_19: - v[C1,K2,19] + f[0,C1,K2,19] - f[C1,0,K2,19]
   - f[C1,C2,K2,19] + f[C2,C1,K2,19] = 0
 snk_dest_K2_20: - v[C2,K2,20] - 4 z[K2,20] + f[0,C2,K2,20]
   + f[C1,C2,K2,20] - f[C2,0,K2,20] - f[C2,C1,K2,20] = 0
 src_flow_K2_20: - 4 z[K2,20] + f[0,C1,K2,20] + f[0,C2,K2,20]
   - f[C1,0,K2,20] - f[C2,0,K2,20] = 1
 snk_mid_C1_K2_20: - v[C1,K2,20] + f[0,C1,K2,20] - f[C1,0,K2,20]
   - f[C1,C2,K2,20] + f[C2,C1,K2,20] = 0
 snk_dest_K2_21: - v[C2,K2,21] - 4 z[K2,21] + f[0,C2,K2,21]
   + f[C1,C2,K2,21] - f[C2,0,K2,21] - f[C2,C1,K2,21] = 0
 src_flow_K2_21: - 4 z[K2,21] + f[0,C1,K2,21] + f[0,C2,K2,21]
   - f[C1,0,K2,21] - f[C2,0,K2,21] = 1
 snk_mid_C1_K2_21: - v[C1,K2,21] + f[0,C1,K2,21] - f[C1,0,K2,21]
   - f[C1,C2,K2,21] + f[C2,C1,K2,21] = 0
 snk_dest_K2_22: - v[C2,K2,22] - 4 z[K2,22] + f[0,C2,K2,22]
   + f[C1,C2,K2,22] - f[C2,0,K2,22] - f[C2,C1,K2,22] = 0
 src_flow_K2_22: - 4 z[K2,22] + f[0,C1,K2,22] + f[0,C2,K2,22]
   - f[C1,0,K2,22] - f[C2,0,K2,22] = 1
 snk_mid_C1_K2_22: - v[C1,K2,22] + f[0,C1,K2,22] - f[C1,0,K2,22]
   - f[C1,C2,K2,22] + f[C2,C1,K2,22] = 0
 snk_dest_K2_23: - v[C2,K2,23] - 4 z[K2,23] + f[0,C2,K2,23]
   + f[C1,C2,K2,23] - f[C2,0,K2,23] - f[C2,C1,K2,23] = 0
 src_flow_K2_23: - 4 z[K2,23] + f[0,C1,K2,23] + f[0,C2,K2,23]
   - f[C1,0,K2,23] - f[C2,0,K2,23] = 1
 snk_mid_C1_K2_23: - v[C1,K2,23] + f[0,C1,K2,23] - f[C1,0,K2,23]
   - f[C1,C2,K2,23] + f[C2,C1,K2,23] = 0
 snk_dest_K2_24: - v[C2,K2,24] - 4 z[K2,24] + f[0,C2,K2,24]
   + f[C1,C2,K2,24] - f[C2,0,K2,24] - f[C2,C1,K2,24] = 0
 src_flow_K2_24: - 4 z[K2,24] + f[0,C1,K2,24] + f[0,C2,K2,24]
   - f[C1,0,K2,24] - f[C2,0,K2,24] = 1
 snk_mid_C1_K2_24: - v[C1,K2,24] + f[0,C1,K2,24] - f[C1,0,K2,24]
   - f[C1,C2,K2,24] + f[C2,C1,K2,24] = 0
 snk_dest_K2_25: - v[C2,K2,25] - 4 z[K2,25] + f[0,C2,K2,25]
   + f[C1,C2,K2,25] - f[C2,0,K2,25] - f[C2,C1,K2,25] = 0
 src_flow_K2_25: - 4 z[K2,25] + f[0,C1,K2,25] + f[0,C2,K2,25]
   - f[C1,0,K2,25] - f[C2,0,K2,25] = 1
 snk_mid_C1_K2_25: - v[C1,K2,25] + f[0,C1,K2,25] - f[C1,0,K2,25]
   - f[C1,C2,K2,25] + f[C2,C1,K2,25] = 0
 snk_dest_K2_26: - v[C2,K2,26] - 4 z[K2,26] + f[0,C2,K2,26]
   + f[C1,C2,K2,26] - f[C2,0,K2,26] - f[C2,C1,K2,26] = 0
 src_flow_K2_26: - 4 z[K2,26] + f[0,C1,K2,26] + f[0,C2,K2,26]
   - f[C1,0,K2,26] - f[C2,0,K2,26] = 1
 snk_mid_C1_K2_26: - v[C1,K2,26] + f[0,C1,K2,26] - f[C1,0,K2,26]
   - f[C1,C2,K2,26] + f[C2,C1,K2,26] = 0
 snk_dest_K2_27: - v[C2,K2,27] - 4 z[K2,27] + f[0,C2,K2,27]
   + f[C1,C2,K2,27] - f[C2,0,K2,27] - f[C2,C1,K2,27] = 0
 src_flow_K2_27: - 4 z[K2,27] + f[0,C1,K2,27] + f[0,C2,K2,27]
   - f[C1,0,K2,27] - f[C2,0,K2,27] = 1
 snk_mid_C1_K2_27: - v[C1,K2,27] + f[0,C1,K2,27] - f[C1,0,K2,27]
   - f[C1,C2,K2,27] + f[C2,C1,K2,27] = 0
 snk_dest_K2_28: - v[C2,K2,28] - 4 z[K2,28] + f[0,C2,K2,28]
   + f[C1,C2,K2,28] - f[C2,0,K2,28] - f[C2,C1,K2,28] = 0
 src_flow_K2_28: - 4 z[K2,28] + f[0,C1,K2,28] + f[0,C2,K2,28]
   - f[C1,0,K2,28] - f[C2,0,K2,28] = 1
 snk_mid_C1_K2_28: - v[C1,K2,28] + f[0,C1,K2,28] - f[C1,0,K2,28]
   - f[C1,C2,K2,28] + f[C2,C1,K2,28] = 0
 snk_dest_K2_29: - v[C2,K2,29] - 4 z[K2,29] + f[0,C2,K2,29]
   + f[C1,C2,K2,29] - f[C2,0,K2,29] - f[C2,C1,K2,29] = 0
 src_flow_K2_29: - 4 z[K2,29] + f[0,C1,K2,29] + f[0,C2,K2,29]
   - f[C1,0,K2,29] - f[C2,0,K2,29] = 1
 snk_mid_C1_K2_29: - v[C1,K2,29] + f[0,C1,K2,29] - f[C1,0,K2,29]
   - f[C1,C2,K2,29] + f[C2,C1,K2,29] = 0
 snk_dest_K2_30: - v[C2,K2,30] - 4 z[K2,30] + f[0,C2,K2,30]
   + f[C1,C2,K2,30] - f[C2,0,K2,30] - f[C2,C1,K2,30] = 0
 src_flow_K2_30: - 4 z[K2,30] + f[0,C1,K2,30] + f[0,C2,K2,30]
   - f[C1,0,K2,30] - f[C2,0,K2,30] = 1
 snk_mid_C1_K2_30: - v[C1,K2,30] + f[0,C1,K2,30] - f[C1,0,K2,30]
   - f[C1,C2,K2,30] + f[C2,C1,K2,30] = 0
 cap_src_in_0_C1_1: - 0.908 v[C1,K1,1] - 0.908 v[C1,K2,1] + f[0,C1,K1,1]
   + f[0,C1,K2,1] + f[C1,0,K1,1] + f[C1,0,K2,1] <= 0
 cap_src_in_0_C2_1: - 0.762 v[C2,K1,1] - 0.762 v[C2,K2,1] + f[0,C2,K1,1]
   + f[0,C2,K2,1] + f[C2,0,K1,1] + f[C2,0,K2,1] <= 0
 cap_src_out_C1_0_1: - 0.908 v[C1,K1,1] - 0.908 v[C1,K2,1] + f[0,C1,K1,1]
   + f[0,C1,K2,1] + f[C1,0,K1,1] + f[C1,0,K2,1] <= 0
 cap_P2P_i_C1_C2_1: - 8.623 v[C1,K1,1] - 8.623 v[C1,K2,1] + f[C1,C2,K1,1]
   + f[C1,C2,K2,1] + f[C2,C1,K1,1] + f[C2,C1,K2,1] <= 0
 cap_P2P_j_C1_C2_1: - 8.623 v[C2,K1,1] - 8.623 v[C2,K2,1] + f[C1,C2,K1,1]
   + f[C1,C2,K2,1] + f[C2,C1,K1,1] + f[C2,C1,K2,1] <= 0
 cap_src_out_C2_0_1: - 0.762 v[C2,K1,1] - 0.762 v[C2,K2,1] + f[0,C2,K1,1]
   + f[0,C2,K2,1] + f[C2,0,K1,1] + f[C2,0,K2,1] <= 0
 cap_P2P_i_C2_C1_1: - 8.623 v[C2,K1,1] - 8.623 v[C2,K2,1] + f[C1,C2,K1,1]
   + f[C1,C2,K2,1] + f[C2,C1,K1,1] + f[C2,C1,K2,1] <= 0
 cap_P2P_j_C2_C1_1: - 8.623 v[C1,K1,1] - 8.623 v[C1,K2,1] + f[C1,C2,K1,1]
   + f[C1,C2,K2,1] + f[C2,C1,K1,1] + f[C2,C1,K2,1] <= 0
 cap_src_in_0_C1_2: - 0.908 v[C1,K1,2] - 0.908 v[C1,K2,2] + f[0,C1,K1,2]
   + f[0,C1,K2,2] + f[C1,0,K1,2] + f[C1,0,K2,2] <= 0
 cap_src_in_0_C2_2: - 0.762 v[C2,K1,2] - 0.762 v[C2,K2,2] + f[0,C2,K1,2]
   + f[0,C2,K2,2] + f[C2,0,K1,2] + f[C2,0,K2,2] <= 0
 cap_src_out_C1_0_2: - 0.908 v[C1,K1,2] - 0.908 v[C1,K2,2] + f[0,C1,K1,2]
   + f[0,C1,K2,2] + f[C1,0,K1,2] + f[C1,0,K2,2] <= 0
 cap_P2P_i_C1_C2_2: - 8.623 v[C1,K1,2] - 8.623 v[C1,K2,2] + f[C1,C2,K1,2]
   + f[C1,C2,K2,2] + f[C2,C1,K1,2] + f[C2,C1,K2,2] <= 0
 cap_P2P_j_C1_C2_2: - 8.623 v[C2,K1,2] - 8.623 v[C2,K2,2] + f[C1,C2,K1,2]
   + f[C1,C2,K2,2] + f[C2,C1,K1,2] + f[C2,C1,K2,2] <= 0
 cap_src_out_C2_0_2: - 0.762 v[C2,K1,2] - 0.762 v[C2,K2,2] + f[0,C2,K1,2]
   + f[0,C2,K2,2] + f[C2,0,K1,2] + f[C2,0,K2,2] <= 0
 cap_P2P_i_C2_C1_2: - 8.623 v[C2,K1,2] - 8.623 v[C2,K2,2] + f[C1,C2,K1,2]
   + f[C1,C2,K2,2] + f[C2,C1,K1,2] + f[C2,C1,K2,2] <= 0
 cap_P2P_j_C2_C1_2: - 8.623 v[C1,K1,2] - 8.623 v[C1,K2,2] + f[C1,C2,K1,2]
   + f[C1,C2,K2,2] + f[C2,C1,K1,2] + f[C2,C1,K2,2] <= 0
 cap_src_in_0_C1_3: - 0.908 v[C1,K1,3] - 0.908 v[C1,K2,3] + f[0,C1,K1,3]
   + f[0,C1,K2,3] + f[C1,0,K1,3] + f[C1,0,K2,3] <= 0
 cap_src_in_0_C2_3: - 0.762 v[C2,K1,3] - 0.762 v[C2,K2,3] + f[0,C2,K1,3]
   + f[0,C2,K2,3] + f[C2,0,K1,3] + f[C2,0,K2,3] <= 0
 cap_src_out_C1_0_3: - 0.908 v[C1,K1,3] - 0.908 v[C1,K2,3] + f[0,C1,K1,3]
   + f[0,C1,K2,3] + f[C1,0,K1,3] + f[C1,0,K2,3] <= 0
 cap_P2P_i_C1_C2_3: - 8.623 v[C1,K1,3] - 8.623 v[C1,K2,3] + f[C1,C2,K1,3]
   + f[C1,C2,K2,3] + f[C2,C1,K1,3] + f[C2,C1,K2,3] <= 0
 cap_P2P_j_C1_C2_3: - 8.623 v[C2,K1,3] - 8.623 v[C2,K2,3] + f[C1,C2,K1,3]
   + f[C1,C2,K2,3] + f[C2,C1,K1,3] + f[C2,C1,K2,3] <= 0
 cap_src_out_C2_0_3: - 0.762 v[C2,K1,3] - 0.762 v[C2,K2,3] + f[0,C2,K1,3]
   + f[0,C2,K2,3] + f[C2,0,K1,3] + f[C2,0,K2,3] <= 0
 cap_P2P_i_C2_C1_3: - 8.623 v[C2,K1,3] - 8.623 v[C2,K2,3] + f[C1,C2,K1,3]
   + f[C1,C2,K2,3] + f[C2,C1,K1,3] + f[C2,C1,K2,3] <= 0
 cap_P2P_j_C2_C1_3: - 8.623 v[C1,K1,3] - 8.623 v[C1,K2,3] + f[C1,C2,K1,3]
   + f[C1,C2,K2,3] + f[C2,C1,K1,3] + f[C2,C1,K2,3] <= 0
 cap_src_in_0_C1_4: - 0.908 v[C1,K1,4] - 0.908 v[C1,K2,4] + f[0,C1,K1,4]
   + f[0,C1,K2,4] + f[C1,0,K1,4] + f[C1,0,K2,4] <= 0
 cap_src_in_0_C2_4: - 0.762 v[C2,K1,4] - 0.762 v[C2,K2,4] + f[0,C2,K1,4]
   + f[0,C2,K2,4] + f[C2,0,K1,4] + f[C2,0,K2,4] <= 0
 cap_src_out_C1_0_4: - 0.908 v[C1,K1,4] - 0.908 v[C1,K2,4] + f[0,C1,K1,4]
   + f[0,C1,K2,4] + f[C1,0,K1,4] + f[C1,0,K2,4] <= 0
 cap_P2P_i_C1_C2_4: - 8.623 v[C1,K1,4] - 8.623 v[C1,K2,4] + f[C1,C2,K1,4]
   + f[C1,C2,K2,4] + f[C2,C1,K1,4] + f[C2,C1,K2,4] <= 0
 cap_P2P_j_C1_C2_4: - 8.623 v[C2,K1,4] - 8.623 v[C2,K2,4] + f[C1,C2,K1,4]
   + f[C1,C2,K2,4] + f[C2,C1,K1,4] + f[C2,C1,K2,4] <= 0
 cap_src_out_C2_0_4: - 0.762 v[C2,K1,4] - 0.762 v[C2,K2,4] + f[0,C2,K1,4]
   + f[0,C2,K2,4] + f[C2,0,K1,4] + f[C2,0,K2,4] <= 0
 cap_P2P_i_C2_C1_4: - 8.623 v[C2,K1,4] - 8.623 v[C2,K2,4] + f[C1,C2,K1,4]
   + f[C1,C2,K2,4] + f[C2,C1,K1,4] + f[C2,C1,K2,4] <= 0
 cap_P2P_j_C2_C1_4: - 8.623 v[C1,K1,4] - 8.623 v[C1,K2,4] + f[C1,C2,K1,4]
   + f[C1,C2,K2,4] + f[C2,C1,K1,4] + f[C2,C1,K2,4] <= 0
 cap_src_in_0_C1_5: - 0.908 v[C1,K1,5] - 0.908 v[C1,K2,5] + f[0,C1,K1,5]
   + f[0,C1,K2,5] + f[C1,0,K1,5] + f[C1,0,K2,5] <= 0
 cap_src_in_0_C2_5: - 0.762 v[C2,K1,5] - 0.762 v[C2,K2,5] + f[0,C2,K1,5]
   + f[0,C2,K2,5] + f[C2,0,K1,5] + f[C2,0,K2,5] <= 0
 cap_src_out_C1_0_5: - 0.908 v[C1,K1,5] - 0.908 v[C1,K2,5] + f[0,C1,K1,5]
   + f[0,C1,K2,5] + f[C1,0,K1,5] + f[C1,0,K2,5] <= 0
 cap_P2P_i_C1_C2_5: - 8.623 v[C1,K1,5] - 8.623 v[C1,K2,5] + f[C1,C2,K1,5]
   + f[C1,C2,K2,5] + f[C2,C1,K1,5] + f[C2,C1,K2,5] <= 0
 cap_P2P_j_C1_C2_5: - 8.623 v[C2,K1,5] - 8.623 v[C2,K2,5] + f[C1,C2,K1,5]
   + f[C1,C2,K2,5] + f[C2,C1,K1,5] + f[C2,C1,K2,5] <= 0
 cap_src_out_C2_0_5: - 0.762 v[C2,K1,5] - 0.762 v[C2,K2,5] + f[0,C2,K1,5]
   + f[0,C2,K2,5] + f[C2,0,K1,5] + f[C2,0,K2,5] <= 0
 cap_P2P_i_C2_C1_5: - 8.623 v[C2,K1,5] - 8.623 v[C2,K2,5] + f[C1,C2,K1,5]
   + f[C1,C2,K2,5] + f[C2,C1,K1,5] + f[C2,C1,K2,5] <= 0
 cap_P2P_j_C2_C1_5: - 8.623 v[C1,K1,5] - 8.623 v[C1,K2,5] + f[C1,C2,K1,5]
   + f[C1,C2,K2,5] + f[C2,C1,K1,5] + f[C2,C1,K2,5] <= 0
 cap_src_in_0_C1_6: - 0.908 v[C1,K1,6] - 0.908 v[C1,K2,6] + f[0,C1,K1,6]
   + f[0,C1,K2,6] + f[C1,0,K1,6] + f[C1,0,K2,6] <= 0
 cap_src_in_0_C2_6: - 0.762 v[C2,K1,6] - 0.762 v[C2,K2,6] + f[0,C2,K1,6]
   + f[0,C2,K2,6] + f[C2,0,K1,6] + f[C2,0,K2,6] <= 0
 cap_src_out_C1_0_6: - 0.908 v[C1,K1,6] - 0.908 v[C1,K2,6] + f[0,C1,K1,6]
   + f[0,C1,K2,6] + f[C1,0,K1,6] + f[C1,0,K2,6] <= 0
 cap_P2P_i_C1_C2_6: - 8.623 v[C1,K1,6] - 8.623 v[C1,K2,6] + f[C1,C2,K1,6]
   + f[C1,C2,K2,6] + f[C2,C1,K1,6] + f[C2,C1,K2,6] <= 0
 cap_P2P_j_C1_C2_6: - 8.623 v[C2,K1,6] - 8.623 v[C2,K2,6] + f[C1,C2,K1,6]
   + f[C1,C2,K2,6] + f[C2,C1,K1,6] + f[C2,C1,K2,6] <= 0
 cap_src_out_C2_0_6: - 0.762 v[C2,K1,6] - 0.762 v[C2,K2,6] + f[0,C2,K1,6]
   + f[0,C2,K2,6] + f[C2,0,K1,6] + f[C2,0,K2,6] <= 0
 cap_P2P_i_C2_C1_6: - 8.623 v[C2,K1,6] - 8.623 v[C2,K2,6] + f[C1,C2,K1,6]
   + f[C1,C2,K2,6] + f[C2,C1,K1,6] + f[C2,C1,K2,6] <= 0
 cap_P2P_j_C2_C1_6: - 8.623 v[C1,K1,6] - 8.623 v[C1,K2,6] + f[C1,C2,K1,6]
   + f[C1,C2,K2,6] + f[C2,C1,K1,6] + f[C2,C1,K2,6] <= 0
 cap_src_in_0_C1_7: - 0.908 v[C1,K1,7] - 0.908 v[C1,K2,7] + f[0,C1,K1,7]
   + f[0,C1,K2,7] + f[C1,0,K1,7] + f[C1,0,K2,7] <= 0
 cap_src_in_0_C2_7: - 0.762 v[C2,K1,7] - 0.762 v[C2,K2,7] + f[0,C2,K1,7]
   + f[0,C2,K2,7] + f[C2,0,K1,7] + f[C2,0,K2,7] <= 0
 cap_src_out_C1_0_7: - 0.908 v[C1,K1,7] - 0.908 v[C1,K2,7] + f[0,C1,K1,7]
   + f[0,C1,K2,7] + f[C1,0,K1,7] + f[C1,0,K2,7] <= 0
 cap_P2P_i_C1_C2_7: - 8.623 v[C1,K1,7] - 8.623 v[C1,K2,7] + f[C1,C2,K1,7]
   + f[C1,C2,K2,7] + f[C2,C1,K1,7] + f[C2,C1,K2,7] <= 0
 cap_P2P_j_C1_C2_7: - 8.623 v[C2,K1,7] - 8.623 v[C2,K2,7] + f[C1,C2,K1,7]
   + f[C1,C2,K2,7] + f[C2,C1,K1,7] + f[C2,C1,K2,7] <= 0
 cap_src_out_C2_0_7: - 0.762 v[C2,K1,7] - 0.762 v[C2,K2,7] + f[0,C2,K1,7]
   + f[0,C2,K2,7] + f[C2,0,K1,7] + f[C2,0,K2,7] <= 0
 cap_P2P_i_C2_C1_7: - 8.623 v[C2,K1,7] - 8.623 v[C2,K2,7] + f[C1,C2,K1,7]
   + f[C1,C2,K2,7] + f[C2,C1,K1,7] + f[C2,C1,K2,7] <= 0
 cap_P2P_j_C2_C1_7: - 8.623 v[C1,K1,7] - 8.623 v[C1,K2,7] + f[C1,C2,K1,7]
   + f[C1,C2,K2,7] + f[C2,C1,K1,7] + f[C2,C1,K2,7] <= 0
 cap_src_in_0_C1_8: - 0.908 v[C1,K1,8] - 0.908 v[C1,K2,8] + f[0,C1,K1,8]
   + f[0,C1,K2,8] + f[C1,0,K1,8] + f[C1,0,K2,8] <= 0
 cap_src_in_0_C2_8: - 0.762 v[C2,K1,8] - 0.762 v[C2,K2,8] + f[0,C2,K1,8]
   + f[0,C2,K2,8] + f[C2,0,K1,8] + f[C2,0,K2,8] <= 0
 cap_src_out_C1_0_8: - 0.908 v[C1,K1,8] - 0.908 v[C1,K2,8] + f[0,C1,K1,8]
   + f[0,C1,K2,8] + f[C1,0,K1,8] + f[C1,0,K2,8] <= 0
 cap_P2P_i_C1_C2_8: - 8.623 v[C1,K1,8] - 8.623 v[C1,K2,8] + f[C1,C2,K1,8]
   + f[C1,C2,K2,8] + f[C2,C1,K1,8] + f[C2,C1,K2,8] <= 0
 cap_P2P_j_C1_C2_8: - 8.623 v[C2,K1,8] - 8.623 v[C2,K2,8] + f[C1,C2,K1,8]
   + f[C1,C2,K2,8] + f[C2,C1,K1,8] + f[C2,C1,K2,8] <= 0
 cap_src_out_C2_0_8: - 0.762 v[C2,K1,8] - 0.762 v[C2,K2,8] + f[0,C2,K1,8]
   + f[0,C2,K2,8] + f[C2,0,K1,8] + f[C2,0,K2,8] <= 0
 cap_P2P_i_C2_C1_8: - 8.623 v[C2,K1,8] - 8.623 v[C2,K2,8] + f[C1,C2,K1,8]
   + f[C1,C2,K2,8] + f[C2,C1,K1,8] + f[C2,C1,K2,8] <= 0
 cap_P2P_j_C2_C1_8: - 8.623 v[C1,K1,8] - 8.623 v[C1,K2,8] + f[C1,C2,K1,8]
   + f[C1,C2,K2,8] + f[C2,C1,K1,8] + f[C2,C1,K2,8] <= 0
 cap_src_in_0_C1_9: - 0.908 v[C1,K1,9] - 0.908 v[C1,K2,9] + f[0,C1,K1,9]
   + f[0,C1,K2,9] + f[C1,0,K1,9] + f[C1,0,K2,9] <= 0
 cap_src_in_0_C2_9: - 0.762 v[C2,K1,9] - 0.762 v[C2,K2,9] + f[0,C2,K1,9]
   + f[0,C2,K2,9] + f[C2,0,K1,9] + f[C2,0,K2,9] <= 0
 cap_src_out_C1_0_9: - 0.908 v[C1,K1,9] - 0.908 v[C1,K2,9] + f[0,C1,K1,9]
   + f[0,C1,K2,9] + f[C1,0,K1,9] + f[C1,0,K2,9] <= 0
 cap_P2P_i_C1_C2_9: - 8.623 v[C1,K1,9] - 8.623 v[C1,K2,9] + f[C1,C2,K1,9]
   + f[C1,C2,K2,9] + f[C2,C1,K1,9] + f[C2,C1,K2,9] <= 0
 cap_P2P_j_C1_C2_9: - 8.623 v[C2,K1,9] - 8.623 v[C2,K2,9] + f[C1,C2,K1,9]
   + f[C1,C2,K2,9] + f[C2,C1,K1,9] + f[C2,C1,K2,9] <= 0
 cap_src_out_C2_0_9: - 0.762 v[C2,K1,9] - 0.762 v[C2,K2,9] + f[0,C2,K1,9]
   + f[0,C2,K2,9] + f[C2,0,K1,9] + f[C2,0,K2,9] <= 0
 cap_P2P_i_C2_C1_9: - 8.623 v[C2,K1,9] - 8.623 v[C2,K2,9] + f[C1,C2,K1,9]
   + f[C1,C2,K2,9] + f[C2,C1,K1,9] + f[C2,C1,K2,9] <= 0
 cap_P2P_j_C2_C1_9: - 8.623 v[C1,K1,9] - 8.623 v[C1,K2,9] + f[C1,C2,K1,9]
   + f[C1,C2,K2,9] + f[C2,C1,K1,9] + f[C2,C1,K2,9] <= 0
 cap_src_in_0_C1_10: - 0.908 v[C1,K1,10] - 0.908 v[C1,K2,10]
   + f[0,C1,K1,10] + f[0,C1,K2,10] + f[C1,0,K1,10] + f[C1,0,K2,10] <= 0
 cap_src_in_0_C2_10: - 0.762 v[C2,K1,10] - 0.762 v[C2,K2,10]
   + f[0,C2,K1,10] + f[0,C2,K2,10] + f[C2,0,K1,10] + f[C2,0,K2,10] <= 0
 cap_src_out_C1_0_10: - 0.908 v[C1,K1,10] - 0.908 v[C1,K2,10]
   + f[0,C1,K1,10] + f[0,C1,K2,10] + f[C1,0,K1,10] + f[C1,0,K2,10] <= 0
 cap_P2P_i_C1_C2_10: - 8.623 v[C1,K1,10] - 8.623 v[C1,K2,10]
   + f[C1,C2,K1,10] + f[C1,C2,K2,10] + f[C2,C1,K1,10] + f[C2,C1,K2,10]
   <= 0
 cap_P2P_j_C1_C2_10: - 8.623 v[C2,K1,10] - 8.623 v[C2,K2,10]
   + f[C1,C2,K1,10] + f[C1,C2,K2,10] + f[C2,C1,K1,10] + f[C2,C1,K2,10]
   <= 0
 cap_src_out_C2_0_10: - 0.762 v[C2,K1,10] - 0.762 v[C2,K2,10]
   + f[0,C2,K1,10] + f[0,C2,K2,10] + f[C2,0,K1,10] + f[C2,0,K2,10] <= 0
 cap_P2P_i_C2_C1_10: - 8.623 v[C2,K1,10] - 8.623 v[C2,K2,10]
   + f[C1,C2,K1,10] + f[C1,C2,K2,10] + f[C2,C1,K1,10] + f[C2,C1,K2,10]
   <= 0
 cap_P2P_j_C2_C1_10: - 8.623 v[C1,K1,10] - 8.623 v[C1,K2,10]
   + f[C1,C2,K1,10] + f[C1,C2,K2,10] + f[C2,C1,K1,10] + f[C2,C1,K2,10]
   <= 0
 cap_src_in_0_C1_11: - 0.908 v[C1,K1,11] - 0.908 v[C1,K2,11]
   + f[0,C1,K1,11] + f[0,C1,K2,11] + f[C1,0,K1,11] + f[C1,0,K2,11] <= 0
 cap_src_in_0_C2_11: - 0.762 v[C2,K1,11] - 0.762 v[C2,K2,11]
   + f[0,C2,K1,11] + f[0,C2,K2,11] + f[C2,0,K1,11] + f[C2,0,K2,11] <= 0
 cap_src_out_C1_0_11: - 0.908 v[C1,K1,11] - 0.908 v[C1,K2,11]
   + f[0,C1,K1,11] + f[0,C1,K2,11] + f[C1,0,K1,11] + f[C1,0,K2,11] <= 0
 cap_P2P_i_C1_C2_11: - 8.623 v[C1,K1,11] - 8.623 v[C1,K2,11]
   + f[C1,C2,K1,11] + f[C1,C2,K2,11] + f[C2,C1,K1,11] + f[C2,C1,K2,11]
   <= 0
 cap_P2P_j_C1_C2_11: - 8.623 v[C2,K1,11] - 8.623 v[C2,K2,11]
   + f[C1,C2,K1,11] + f[C1,C2,K2,11] + f[C2,C1,K1,11] + f[C2,C1,K2,11]
   <= 0
 cap_src_out_C2_0_11: - 0.762 v[C2,K1,11] - 0.762 v[C2,K2,11]
   + f[0,C2,K1,11] + f[0,C2,K2,11] + f[C2,0,K1,11] + f[C2,0,K2,11] <= 0
 cap_P2P_i_C2_C1_11: - 8.623 v[C2,K1,11] - 8.623 v[C2,K2,11]
   + f[C1,C2,K1,11] + f[C1,C2,K2,11] + f[C2,C1,K1,11] + f[C2,C1,K2,11]
   <= 0
 cap_P2P_j_C2_C1_11: - 8.623 v[C1,K1,11] - 8.623 v[C1,K2,11]
   + f[C1,C2,K1,11] + f[C1,C2,K2,11] + f[C2,C1,K1,11] + f[C2,C1,K2,11]
   <= 0
 cap_src_in_0_C1_12: - 0.908 v[C1,K1,12] - 0.908 v[C1,K2,12]
   + f[0,C1,K1,12] + f[0,C1,K2,12] + f[C1,0,K1,12] + f[C1,0,K2,12] <= 0
 cap_src_in_0_C2_12: - 0.762 v[C2,K1,12] - 0.762 v[C2,K2,12]
   + f[0,C2,K1,12] + f[0,C2,K2,12] + f[C2,0,K1,12] + f[C2,0,K2,12] <= 0
 cap_src_out_C1_0_12: - 0.908 v[C1,K1,12] - 0.908 v[C1,K2,12]
   + f[0,C1,K1,12] + f[0,C1,K2,12] + f[C1,0,K1,12] + f[C1,0,K2,12] <= 0
 cap_P2P_i_C1_C2_12: - 8.623 v[C1,K1,12] - 8.623 v[C1,K2,12]
   + f[C1,C2,K1,12] + f[C1,C2,K2,12] + f[C2,C1,K1,12] + f[C2,C1,K2,12]
   <= 0
 cap_P2P_j_C1_C2_12: - 8.623 v[C2,K1,12] - 8.623 v[C2,K2,12]
   + f[C1,C2,K1,12] + f[C1,C2,K2,12] + f[C2,C1,K1,12] + f[C2,C1,K2,12]
   <= 0
 cap_src_out_C2_0_12: - 0.762 v[C2,K1,12] - 0.762 v[C2,K2,12]
   + f[0,C2,K1,12] + f[0,C2,K2,12] + f[C2,0,K1,12] + f[C2,0,K2,12] <= 0
 cap_P2P_i_C2_C1_12: - 8.623 v[C2,K1,12] - 8.623 v[C2,K2,12]
   + f[C1,C2,K1,12] + f[C1,C2,K2,12] + f[C2,C1,K1,12] + f[C2,C1,K2,12]
   <= 0
 cap_P2P_j_C2_C1_12: - 8.623 v[C1,K1,12] - 8.623 v[C1,K2,12]
   + f[C1,C2,K1,12] + f[C1,C2,K2,12] + f[C2,C1,K1,12] + f[C2,C1,K2,12]
   <= 0
 cap_src_in_0_C1_13: - 0.908 v[C1,K1,13] - 0.908 v[C1,K2,13]
   + f[0,C1,K1,13] + f[0,C1,K2,13] + f[C1,0,K1,13] + f[C1,0,K2,13] <= 0
 cap_src_in_0_C2_13: - 0.762 v[C2,K1,13] - 0.762 v[C2,K2,13]
   + f[0,C2,K1,13] + f[0,C2,K2,13] + f[C2,0,K1,13] + f[C2,0,K2,13] <= 0
 cap_src_out_C1_0_13: - 0.908 v[C1,K1,13] - 0.908 v[C1,K2,13]
   + f[0,C1,K1,13] + f[0,C1,K2,13] + f[C1,0,K1,13] + f[C1,0,K2,13] <= 0
 cap_P2P_i_C1_C2_13: - 8.623 v[C1,K1,13] - 8.623 v[C1,K2,13]
   + f[C1,C2,K1,13] + f[C1,C2,K2,13] + f[C2,C1,K1,13] + f[C2,C1,K2,13]
   <= 0
 cap_P2P_j_C1_C2_13: - 8.623 v[C2,K1,13] - 8.623 v[C2,K2,13]
   + f[C1,C2,K1,13] + f[C1,C2,K2,13] + f[C2,C1,K1,13] + f[C2,C1,K2,13]
   <= 0
 cap_src_out_C2_0_13: - 0.762 v[C2,K1,13] - 0.762 v[C2,K2,13]
   + f[0,C2,K1,13] + f[0,C2,K2,13] + f[C2,0,K1,13] + f[C2,0,K2,13] <= 0
 cap_P2P_i_C2_C1_13: - 8.623 v[C2,K1,13] - 8.623 v[C2,K2,13]
   + f[C1,C2,K1,13] + f[C1,C2,K2,13] + f[C2,C1,K1,13] + f[C2,C1,K2,13]
   <= 0
 cap_P2P_j_C2_C1_13: - 8.623 v[C1,K1,13] - 8.623 v[C1,K2,13]
   + f[C1,C2,K1,13] + f[C1,C2,K2,13] + f[C2,C1,K1,13] + f[C2,C1,K2,13]
   <= 0
 cap_src_in_0_C1_14: - 0.908 v[C1,K1,14] - 0.908 v[C1,K2,14]
   + f[0,C1,K1,14] + f[0,C1,K2,14] + f[C1,0,K1,14] + f[C1,0,K2,14] <= 0
 cap_src_in_0_C2_14: - 0.762 v[C2,K1,14] - 0.762 v[C2,K2,14]
   + f[0,C2,K1,14] + f[0,C2,K2,14] + f[C2,0,K1,14] + f[C2,0,K2,14] <= 0
 cap_src_out_C1_0_14: - 0.908 v[C1,K1,14] - 0.908 v[C1,K2,14]
   + f[0,C1,K1,14] + f[0,C1,K2,14] + f[C1,0,K1,14] + f[C1,0,K2,14] <= 0
 cap_P2P_i_C1_C2_14: - 8.623 v[C1,K1,14] - 8.623 v[C1,K2,14]
   + f[C1,C2,K1,14] + f[C1,C2,K2,14] + f[C2,C1,K1,14] + f[C2,C1,K2,14]
   <= 0
 cap_P2P_j_C1_C2_14: - 8.623 v[C2,K1,14] - 8.623 v[C2,K2,14]
   + f[C1,C2,K1,14] + f[C1,C2,K2,14] + f[C2,C1,K1,14] + f[C2,C1,K2,14]
   <= 0
 cap_src_out_C2_0_14: - 0.762 v[C2,K1,14] - 0.762 v[C2,K2,14]
   + f[0,C2,K1,14] + f[0,C2,K2,14] + f[C2,0,K1,14] + f[C2,0,K2,14] <= 0
 cap_P2P_i_C2_C1_14: - 8.623 v[C2,K1,14] - 8.623 v[C2,K2,14]
   + f[C1,C2,K1,14] + f[C1,C2,K2,14] + f[C2,C1,K1,14] + f[C2,C1,K2,14]
   <= 0
 cap_P2P_j_C2_C1_14: - 8.623 v[C1,K1,14] - 8.623 v[C1,K2,14]
   + f[C1,C2,K1,14] + f[C1,C2,K2,14] + f[C2,C1,K1,14] + f[C2,C1,K2,14]
   <= 0
 cap_src_in_0_C1_15: - 0.908 v[C1,K1,15] - 0.908 v[C1,K2,15]
   + f[0,C1,K1,15] + f[0,C1,K2,15] + f[C1,0,K1,15] + f[C1,0,K2,15] <= 0
 cap_src_in_0_C2_15: - 0.762 v[C2,K1,15] - 0.762 v[C2,K2,15]
   + f[0,C2,K1,15] + f[0,C2,K2,15] + f[C2,0,K1,15] + f[C2,0,K2,15] <= 0
 cap_src_out_C1_0_15: - 0.908 v[C1,K1,15] - 0.908 v[C1,K2,15]
   + f[0,C1,K1,15] + f[0,C1,K2,15] + f[C1,0,K1,15] + f[C1,0,K2,15] <= 0
 cap_P2P_i_C1_C2_15: - 8.623 v[C1,K1,15] - 8.623 v[C1,K2,15]
   + f[C1,C2,K1,15] + f[C1,C2,K2,15] + f[C2,C1,K1,15] + f[C2,C1,K2,15]
   <= 0
 cap_P2P_j_C1_C2_15: - 8.623 v[C2,K1,15] - 8.623 v[C2,K2,15]
   + f[C1,C2,K1,15] + f[C1,C2,K2,15] + f[C2,C1,K1,15] + f[C2,C1,K2,15]
   <= 0
 cap_src_out_C2_0_15: - 0.762 v[C2,K1,15] - 0.762 v[C2,K2,15]
   + f[0,C2,K1,15] + f[0,C2,K2,15] + f[C2,0,K1,15] + f[C2,0,K2,15] <= 0
 cap_P2P_i_C2_C1_15: - 8.623 v[C2,K1,15] - 8.623 v[C2,K2,15]
   + f[C1,C2,K1,15] + f[C1,C2,K2,15] + f[C2,C1,K1,15] + f[C2,C1,K2,15]
   <= 0
 cap_P2P_j_C2_C1_15: - 8.623 v[C1,K1,15] - 8.623 v[C1,K2,15]
   + f[C1,C2,K1,15] + f[C1,C2,K2,15] + f[C2,C1,K1,15] + f[C2,C1,K2,15]
   <= 0
 cap_src_in_0_C1_16: - 0.908 v[C1,K1,16] - 0.908 v[C1,K2,16]
   + f[0,C1,K1,16] + f[0,C1,K2,16] + f[C1,0,K1,16] + f[C1,0,K2,16] <= 0
 cap_src_in_0_C2_16: - 0.762 v[C2,K1,16] - 0.762 v[C2,K2,16]
   + f[0,C2,K1,16] + f[0,C2,K2,16] + f[C2,0,K1,16] + f[C2,0,K2,16] <= 0
 cap_src_out_C1_0_16: - 0.908 v[C1,K1,16] - 0.908 v[C1,K2,16]
   + f[0,C1,K1,16] + f[0,C1,K2,16] + f[C1,0,K1,16] + f[C1,0,K2,16] <= 0
 cap_P2P_i_C1_C2_16: - 8.623 v[C1,K1,16] - 8.623 v[C1,K2,16]
   + f[C1,C2,K1,16] + f[C1,C2,K2,16] + f[C2,C1,K1,16] + f[C2,C1,K2,16]
   <= 0
 cap_P2P_j_C1_C2_16: - 8.623 v[C2,K1,16] - 8.623 v[C2,K2,16]
   + f[C1,C2,K1,16] + f[C1,C2,K2,16] + f[C2,C1,K1,16] + f[C2,C1,K2,16]
   <= 0
 cap_src_out_C2_0_16: - 0.762 v[C2,K1,16] - 0.762 v[C2,K2,16]
   + f[0,C2,K1,16] + f[0,C2,K2,16] + f[C2,0,K1,16] + f[C2,0,K2,16] <= 0
 cap_P2P_i_C2_C1_16: - 8.623 v[C2,K1,16] - 8.623 v[C2,K2,16]
   + f[C1,C2,K1,16] + f[C1,C2,K2,16] + f[C2,C1,K1,16] + f[C2,C1,K2,16]
   <= 0
 cap_P2P_j_C2_C1_16: - 8.623 v[C1,K1,16] - 8.623 v[C1,K2,16]
   + f[C1,C2,K1,16] + f[C1,C2,K2,16] + f[C2,C1,K1,16] + f[C2,C1,K2,16]
   <= 0
 cap_src_in_0_C1_17: - 0.908 v[C1,K1,17] - 0.908 v[C1,K2,17]
   + f[0,C1,K1,17] + f[0,C1,K2,17] + f[C1,0,K1,17] + f[C1,0,K2,17] <= 0
 cap_src_in_0_C2_17: - 0.762 v[C2,K1,17] - 0.762 v[C2,K2,17]
   + f[0,C2,K1,17] + f[0,C2,K2,17] + f[C2,0,K1,17] + f[C2,0,K2,17] <= 0
 cap_src_out_C1_0_17: - 0.908 v[C1,K1,17] - 0.908 v[C1,K2,17]
   + f[0,C1,K1,17] + f[0,C1,K2,17] + f[C1,0,K1,17] + f[C1,0,K2,17] <= 0
 cap_P2P_i_C1_C2_17: - 8.623 v[C1,K1,17] - 8.623 v[C1,K2,17]
   + f[C1,C2,K1,17] + f[C1,C2,K2,17] + f[C2,C1,K1,17] + f[C2,C1,K2,17]
   <= 0
 cap_P2P_j_C1_C2_17: - 8.623 v[C2,K1,17] - 8.623 v[C2,K2,17]
   + f[C1,C2,K1,17] + f[C1,C2,K2,17] + f[C2,C1,K1,17] + f[C2,C1,K2,17]
   <= 0
 cap_src_out_C2_0_17: - 0.762 v[C2,K1,17] - 0.762 v[C2,K2,17]
   + f[0,C2,K1,17] + f[0,C2,K2,17] + f[C2,0,K1,17] + f[C2,0,K2,17] <= 0
 cap_P2P_i_C2_C1_17: - 8.623 v[C2,K1,17] - 8.623 v[C2,K2,17]
   + f[C1,C2,K1,17] + f[C1,C2,K2,17] + f[C2,C1,K1,17] + f[C2,C1,K2,17]
   <= 0
 cap_P2P_j_C2_C1_17: - 8.623 v[C1,K1,17] - 8.623 v[C1,K2,17]
   + f[C1,C2,K1,17] + f[C1,C2,K2,17] + f[C2,C1,K1,17] + f[C2,C1,K2,17]
   <= 0
 cap_src_in_0_C1_18: - 0.908 v[C1,K1,18] - 0.908 v[C1,K2,18]
   + f[0,C1,K1,18] + f[0,C1,K2,18] + f[C1,0,K1,18] + f[C1,0,K2,18] <= 0
 cap_src_in_0_C2_18: - 0.762 v[C2,K1,18] - 0.762 v[C2,K2,18]
   + f[0,C2,K1,18] + f[0,C2,K2,18] + f[C2,0,K1,18] + f[C2,0,K2,18] <= 0
 cap_src_out_C1_0_18: - 0.908 v[C1,K1,18] - 0.908 v[C1,K2,18]
   + f[0,C1,K1,18] + f[0,C1,K2,18] + f[C1,0,K1,18] + f[C1,0,K2,18] <= 0
 cap_P2P_i_C1_C2_18: - 8.623 v[C1,K1,18] - 8.623 v[C1,K2,18]
   + f[C1,C2,K1,18] + f[C1,C2,K2,18] + f[C2,C1,K1,18] + f[C2,C1,K2,18]
   <= 0
 cap_P2P_j_C1_C2_18: - 8.623 v[C2,K1,18] - 8.623 v[C2,K2,18]
   + f[C1,C2,K1,18] + f[C1,C2,K2,18] + f[C2,C1,K1,18] + f[C2,C1,K2,18]
   <= 0
 cap_src_out_C2_0_18: - 0.762 v[C2,K1,18] - 0.762 v[C2,K2,18]
   + f[0,C2,K1,18] + f[0,C2,K2,18] + f[C2,0,K1,18] + f[C2,0,K2,18] <= 0
 cap_P2P_i_C2_C1_18: - 8.623 v[C2,K1,18] - 8.623 v[C2,K2,18]
   + f[C1,C2,K1,18] + f[C1,C2,K2,18] + f[C2,C1,K1,18] + f[C2,C1,K2,18]
   <= 0
 cap_P2P_j_C2_C1_18: - 8.623 v[C1,K1,18] - 8.623 v[C1,K2,18]
   + f[C1,C2,K1,18] + f[C1,C2,K2,18] + f[C2,C1,K1,18] + f[C2,C1,K2,18]
   <= 0
 cap_src_in_0_C1_19: - 0.908 v[C1,K1,19] - 0.908 v[C1,K2,19]
   + f[0,C1,K1,19] + f[0,C1,K2,19] + f[C1,0,K1,19] + f[C1,0,K2,19] <= 0
 cap_src_in_0_C2_19: - 0.762 v[C2,K1,19] - 0.762 v[C2,K2,19]
   + f[0,C2,K1,19] + f[0,C2,K2,19] + f[C2,0,K1,19] + f[C2,0,K2,19] <= 0
 cap_src_out_C1_0_19: - 0.908 v[C1,K1,19] - 0.908 v[C1,K2,19]
   + f[0,C1,K1,19] + f[0,C1,K2,19] + f[C1,0,K1,19] + f[C1,0,K2,19] <= 0
 cap_P2P_i_C1_C2_19: - 8.623 v[C1,K1,19] - 8.623 v[C1,K2,19]
   + f[C1,C2,K1,19] + f[C1,C2,K2,19] + f[C2,C1,K1,19] + f[C2,C1,K2,19]
   <= 0
 cap_P2P_j_C1_C2_19: - 8.623 v[C2,K1,19] - 8.623 v[C2,K2,19]
   + f[C1,C2,K1,19] + f[C1,C2,K2,19] + f[C2,C1,K1,19] + f[C2,C1,K2,19]
   <= 0
 cap_src_out_C2_0_19: - 0.762 v[C2,K1,19] - 0.762 v[C2,K2,19]
   + f[0,C2,K1,19] + f[0,C2,K2,19] + f[C2,0,K1,19] + f[C2,0,K2,19] <= 0
 cap_P2P_i_C2_C1_19: - 8.623 v[C2,K1,19] - 8.623 v[C2,K2,19]
   + f[C1,C2,K1,19] + f[C1,C2,K2,19] + f[C2,C1,K1,19] + f[C2,C1,K2,19]
   <= 0
 cap_P2P_j_C2_C1_19: - 8.623 v[C1,K1,19] - 8.623 v[C1,K2,19]
   + f[C1,C2,K1,19] + f[C1,C2,K2,19] + f[C2,C1,K1,19] + f[C2,C1,K2,19]
   <= 0
 cap_src_in_0_C1_20: - 0.908 v[C1,K1,20] - 0.908 v[C1,K2,20]
   + f[0,C1,K1,20] + f[0,C1,K2,20] + f[C1,0,K1,20] + f[C1,0,K2,20] <= 0
 cap_src_in_0_C2_20: - 0.762 v[C2,K1,20] - 0.762 v[C2,K2,20]
   + f[0,C2,K1,20] + f[0,C2,K2,20] + f[C2,0,K1,20] + f[C2,0,K2,20] <= 0
 cap_src_out_C1_0_20: - 0.908 v[C1,K1,20] - 0.908 v[C1,K2,20]
   + f[0,C1,K1,20] + f[0,C1,K2,20] + f[C1,0,K1,20] + f[C1,0,K2,20] <= 0
 cap_P2P_i_C1_C2_20: - 8.623 v[C1,K1,20] - 8.623 v[C1,K2,20]
   + f[C1,C2,K1,20] + f[C1,C2,K2,20] + f[C2,C1,K1,20] + f[C2,C1,K2,20]
   <= 0
 cap_P2P_j_C1_C2_20: - 8.623 v[C2,K1,20] - 8.623 v[C2,K2,20]
   + f[C1,C2,K1,20] + f[C1,C2,K2,20] + f[C2,C1,K1,20] + f[C2,C1,K2,20]
   <= 0
 cap_src_out_C2_0_20: - 0.762 v[C2,K1,20] - 0.762 v[C2,K2,20]
   + f[0,C2,K1,20] + f[0,C2,K2,20] + f[C2,0,K1,20] + f[C2,0,K2,20] <= 0
 cap_P2P_i_C2_C1_20: - 8.623 v[C2,K1,20] - 8.623 v[C2,K2,20]
   + f[C1,C2,K1,20] + f[C1,C2,K2,20] + f[C2,C1,K1,20] + f[C2,C1,K2,20]
   <= 0
 cap_P2P_j_C2_C1_20: - 8.623 v[C1,K1,20] - 8.623 v[C1,K2,20]
   + f[C1,C2,K1,20] + f[C1,C2,K2,20] + f[C2,C1,K1,20] + f[C2,C1,K2,20]
   <= 0
 cap_src_in_0_C1_21: - 0.908 v[C1,K1,21] - 0.908 v[C1,K2,21]
   + f[0,C1,K1,21] + f[0,C1,K2,21] + f[C1,0,K1,21] + f[C1,0,K2,21] <= 0
 cap_src_in_0_C2_21: - 0.762 v[C2,K1,21] - 0.762 v[C2,K2,21]
   + f[0,C2,K1,21] + f[0,C2,K2,21] + f[C2,0,K1,21] + f[C2,0,K2,21] <= 0
 cap_src_out_C1_0_21: - 0.908 v[C1,K1,21] - 0.908 v[C1,K2,21]
   + f[0,C1,K1,21] + f[0,C1,K2,21] + f[C1,0,K1,21] + f[C1,0,K2,21] <= 0
 cap_P2P_i_C1_C2_21: - 8.623 v[C1,K1,21] - 8.623 v[C1,K2,21]
   + f[C1,C2,K1,21] + f[C1,C2,K2,21] + f[C2,C1,K1,21] + f[C2,C1,K2,21]
   <= 0
 cap_P2P_j_C1_C2_21: - 8.623 v[C2,K1,21] - 8.623 v[C2,K2,21]
   + f[C1,C2,K1,21] + f[C1,C2,K2,21] + f[C2,C1,K1,21] + f[C2,C1,K2,21]
   <= 0
 cap_src_out_C2_0_21: - 0.762 v[C2,K1,21] - 0.762 v[C2,K2,21]
   + f[0,C2,K1,21] + f[0,C2,K2,21] + f[C2,0,K1,21] + f[C2,0,K2,21] <= 0
 cap_P2P_i_C2_C1_21: - 8.623 v[C2,K1,21] - 8.623 v[C2,K2,21]
   + f[C1,C2,K1,21] + f[C1,C2,K2,21] + f[C2,C1,K1,21] + f[C2,C1,K2,21]
   <= 0
 cap_P2P_j_C2_C1_21: - 8.623 v[C1,K1,21] - 8.623 v[C1,K2,21]
   + f[C1,C2,K1,21] + f[C1,C2,K2,21] + f[C2,C1,K1,21] + f[C2,C1,K2,21]
   <= 0
 cap_src_in_0_C1_22: - 0.908 v[C1,K1,22] - 0.908 v[C1,K2,22]
   + f[0,C1,K1,22] + f[0,C1,K2,22] + f[C1,0,K1,22] + f[C1,0,K2,22] <= 0
 cap_src_in_0_C2_22: - 0.762 v[C2,K1,22] - 0.762 v[C2,K2,22]
   + f[0,C2,K1,22] + f[0,C2,K2,22] + f[C2,0,K1,22] + f[C2,0,K2,22] <= 0
 cap_src_out_C1_0_22: - 0.908 v[C1,K1,22] - 0.908 v[C1,K2,22]
   + f[0,C1,K1,22] + f[0,C1,K2,22] + f[C1,0,K1,22] + f[C1,0,K2,22] <= 0
 cap_P2P_i_C1_C2_22: - 8.623 v[C1,K1,22] - 8.623 v[C1,K2,22]
   + f[C1,C2,K1,22] + f[C1,C2,K2,22] + f[C2,C1,K1,22] + f[C2,C1,K2,22]
   <= 0
 cap_P2P_j_C1_C2_22: - 8.623 v[C2,K1,22] - 8.623 v[C2,K2,22]
   + f[C1,C2,K1,22] + f[C1,C2,K2,22] + f[C2,C1,K1,22] + f[C2,C1,K2,22]
   <= 0
 cap_src_out_C2_0_22: - 0.762 v[C2,K1,22] - 0.762 v[C2,K2,22]
   + f[0,C2,K1,22] + f[0,C2,K2,22] + f[C2,0,K1,22] + f[C2,0,K2,22] <= 0
 cap_P2P_i_C2_C1_22: - 8.623 v[C2,K1,22] - 8.623 v[C2,K2,22]
   + f[C1,C2,K1,22] + f[C1,C2,K2,22] + f[C2,C1,K1,22] + f[C2,C1,K2,22]
   <= 0
 cap_P2P_j_C2_C1_22: - 8.623 v[C1,K1,22] - 8.623 v[C1,K2,22]
   + f[C1,C2,K1,22] + f[C1,C2,K2,22] + f[C2,C1,K1,22] + f[C2,C1,K2,22]
   <= 0
 cap_src_in_0_C1_23: - 0.908 v[C1,K1,23] - 0.908 v[C1,K2,23]
   + f[0,C1,K1,23] + f[0,C1,K2,23] + f[C1,0,K1,23] + f[C1,0,K2,23] <= 0
 cap_src_in_0_C2_23: - 0.762 v[C2,K1,23] - 0.762 v[C2,K2,23]
   + f[0,C2,K1,23] + f[0,C2,K2,23] + f[C2,0,K1,23] + f[C2,0,K2,23] <= 0
 cap_src_out_C1_0_23: - 0.908 v[C1,K1,23] - 0.908 v[C1,K2,23]
   + f[0,C1,K1,23] + f[0,C1,K2,23] + f[C1,0,K1,23] + f[C1,0,K2,23] <= 0
 cap_P2P_i_C1_C2_23: - 8.623 v[C1,K1,23] - 8.623 v[C1,K2,23]
   + f[C1,C2,K1,23] + f[C1,C2,K2,23] + f[C2,C1,K1,23] + f[C2,C1,K2,23]
   <= 0
 cap_P2P_j_C1_C2_23: - 8.623 v[C2,K1,23] - 8.623 v[C2,K2,23]
   + f[C1,C2,K1,23] + f[C1,C2,K2,23] + f[C2,C1,K1,23] + f[C2,C1,K2,23]
   <= 0
 cap_src_out_C2_0_23: - 0.762 v[C2,K1,23] - 0.762 v[C2,K2,23]
   + f[0,C2,K1,23] + f[0,C2,K2,23] + f[C2,0,K1,23] + f[C2,0,K2,23] <= 0
 cap_P2P_i_C2_C1_23: - 8.623 v[C2,K1,23] - 8.623 v[C2,K2,23]
   + f[C1,C2,K1,23] + f[C1,C2,K2,23] + f[C2,C1,K1,23] + f[C2,C1,K2,23]
   <= 0
 cap_P2P_j_C2_C1_23: - 8.623 v[C1,K1,23] - 8.623 v[C1,K2,23]
   + f[C1,C2,K1,23] + f[C1,C2,K2,23] + f[C2,C1,K1,23] + f[C2,C1,K2,23]
   <= 0
 cap_src_in_0_C1_24: - 0.908 v[C1,K1,24] - 0.908 v[C1,K2,24]
   + f[0,C1,K1,24] + f[0,C1,K2,24] + f[C1,0,K1,24] + f[C1,0,K2,24] <= 0
 cap_src_in_0_C2_24: - 0.762 v[C2,K1,24] - 0.762 v[C2,K2,24]
   + f[0,C2,K1,24] + f[0,C2,K2,24] + f[C2,0,K1,24] + f[C2,0,K2,24] <= 0
 cap_src_out_C1_0_24: - 0.908 v[C1,K1,24] - 0.908 v[C1,K2,24]
   + f[0,C1,K1,24] + f[0,C1,K2,24] + f[C1,0,K1,24] + f[C1,0,K2,24] <= 0
 cap_P2P_i_C1_C2_24: - 8.623 v[C1,K1,24] - 8.623 v[C1,K2,24]
   + f[C1,C2,K1,24] + f[C1,C2,K2,24] + f[C2,C1,K1,24] + f[C2,C1,K2,24]
   <= 0
 cap_P2P_j_C1_C2_24: - 8.623 v[C2,K1,24] - 8.623 v[C2,K2,24]
   + f[C1,C2,K1,24] + f[C1,C2,K2,24] + f[C2,C1,K1,24] + f[C2,C1,K2,24]
   <= 0
 cap_src_out_C2_0_24: - 0.762 v[C2,K1,24] - 0.762 v[C2,K2,24]
   + f[0,C2,K1,24] + f[0,C2,K2,24] + f[C2,0,K1,24] + f[C2,0,K2,24] <= 0
 cap_P2P_i_C2_C1_24: - 8.623 v[C2,K1,24] - 8.623 v[C2,K2,24]
   + f[C1,C2,K1,24] + f[C1,C2,K2,24] + f[C2,C1,K1,24] + f[C2,C1,K2,24]
   <= 0
 cap_P2P_j_C2_C1_24: - 8.623 v[C1,K1,24] - 8.623 v[C1,K2,24]
   + f[C1,C2,K1,24] + f[C1,C2,K2,24] + f[C2,C1,K1,24] + f[C2,C1,K2,24]
   <= 0
 cap_src_in_0_C1_25: - 0.908 v[C1,K1,25] - 0.908 v[C1,K2,25]
   + f[0,C1,K1,25] + f[0,C1,K2,25] + f[C1,0,K1,25] + f[C1,0,K2,25] <= 0
 cap_src_in_0_C2_25: - 0.762 v[C2,K1,25] - 0.762 v[C2,K2,25]
   + f[0,C2,K1,25] + f[0,C2,K2,25] + f[C2,0,K1,25] + f[C2,0,K2,25] <= 0
 cap_src_out_C1_0_25: - 0.908 v[C1,K1,25] - 0.908 v[C1,K2,25]
   + f[0,C1,K1,25] + f[0,C1,K2,25] + f[C1,0,K1,25] + f[C1,0,K2,25] <= 0
 cap_P2P_i_C1_C2_25: - 8.623 v[C1,K1,25] - 8.623 v[C1,K2,25]
   + f[C1,C2,K1,25] + f[C1,C2,K2,25] + f[C2,C1,K1,25] + f[C2,C1,K2,25]
   <= 0
 cap_P2P_j_C1_C2_25: - 8.623 v[C2,K1,25] - 8.623 v[C2,K2,25]
   + f[C1,C2,K1,25] + f[C1,C2,K2,25] + f[C2,C1,K1,25] + f[C2,C1,K2,25]
   <= 0
 cap_src_out_C2_0_25: - 0.762 v[C2,K1,25] - 0.762 v[C2,K2,25]
   + f[0,C2,K1,25] + f[0,C2,K2,25] + f[C2,0,K1,25] + f[C2,0,K2,25] <= 0
 cap_P2P_i_C2_C1_25: - 8.623 v[C2,K1,25] - 8.623 v[C2,K2,25]
   + f[C1,C2,K1,25] + f[C1,C2,K2,25] + f[C2,C1,K1,25] + f[C2,C1,K2,25]
   <= 0
 cap_P2P_j_C2_C1_25: - 8.623 v[C1,K1,25] - 8.623 v[C1,K2,25]
   + f[C1,C2,K1,25] + f[C1,C2,K2,25] + f[C2,C1,K1,25] + f[C2,C1,K2,25]
   <= 0
 cap_src_in_0_C1_26: - 0.908 v[C1,K1,26] - 0.908 v[C1,K2,26]
   + f[0,C1,K1,26] + f[0,C1,K2,26] + f[C1,0,K1,26] + f[C1,0,K2,26] <= 0
 cap_src_in_0_C2_26: - 0.762 v[C2,K1,26] - 0.762 v[C2,K2,26]
   + f[0,C2,K1,26] + f[0,C2,K2,26] + f[C2,0,K1,26] + f[C2,0,K2,26] <= 0
 cap_src_out_C1_0_26: - 0.908 v[C1,K1,26] - 0.908 v[C1,K2,26]
   + f[0,C1,K1,26] + f[0,C1,K2,26] + f[C1,0,K1,26] + f[C1,0,K2,26] <= 0
 cap_P2P_i_C1_C2_26: - 8.623 v[C1,K1,26] - 8.623 v[C1,K2,26]
   + f[C1,C2,K1,26] + f[C1,C2,K2,26] + f[C2,C1,K1,26] + f[C2,C1,K2,26]
   <= 0
 cap_P2P_j_C1_C2_26: - 8.623 v[C2,K1,26] - 8.623 v[C2,K2,26]
   + f[C1,C2,K1,26] + f[C1,C2,K2,26] + f[C2,C1,K1,26] + f[C2,C1,K2,26]
   <= 0
 cap_src_out_C2_0_26: - 0.762 v[C2,K1,26] - 0.762 v[C2,K2,26]
   + f[0,C2,K1,26] + f[0,C2,K2,26] + f[C2,0,K1,26] + f[C2,0,K2,26] <= 0
 cap_P2P_i_C2_C1_26: - 8.623 v[C2,K1,26] - 8.623 v[C2,K2,26]
   + f[C1,C2,K1,26] + f[C1,C2,K2,26] + f[C2,C1,K1,26] + f[C2,C1,K2,26]
   <= 0
 cap_P2P_j_C2_C1_26: - 8.623 v[C1,K1,26] - 8.623 v[C1,K2,26]
   + f[C1,C2,K1,26] + f[C1,C2,K2,26] + f[C2,C1,K1,26] + f[C2,C1,K2,26]
   <= 0
 cap_src_in_0_C1_27: - 0.908 v[C1,K1,27] - 0.908 v[C1,K2,27]
   + f[0,C1,K1,27] + f[0,C1,K2,27] + f[C1,0,K1,27] + f[C1,0,K2,27] <= 0
 cap_src_in_0_C2_27: - 0.762 v[C2,K1,27] - 0.762 v[C2,K2,27]
   + f[0,C2,K1,27] + f[0,C2,K2,27] + f[C2,0,K1,27] + f[C2,0,K2,27] <= 0
 cap_src_out_C1_0_27: - 0.908 v[C1,K1,27] - 0.908 v[C1,K2,27]
   + f[0,C1,K1,27] + f[0,C1,K2,27] + f[C1,0,K1,27] + f[C1,0,K2,27] <= 0
 cap_P2P_i_C1_C2_27: - 8.623 v[C1,K1,27] - 8.623 v[C1,K2,27]
   + f[C1,C2,K1,27] + f[C1,C2,K2,27] + f[C2,C1,K1,27] + f[C2,C1,K2,27]
   <= 0
 cap_P2P_j_C1_C2_27: - 8.623 v[C2,K1,27] - 8.623 v[C2,K2,27]
   + f[C1,C2,K1,27] + f[C1,C2,K2,27] + f[C2,C1,K1,27] + f[C2,C1,K2,27]
   <= 0
 cap_src_out_C2_0_27: - 0.762 v[C2,K1,27] - 0.762 v[C2,K2,27]
   + f[0,C2,K1,27] + f[0,C2,K2,27] + f[C2,0,K1,27] + f[C2,0,K2,27] <= 0
 cap_P2P_i_C2_C1_27: - 8.623 v[C2,K1,27] - 8.623 v[C2,K2,27]
   + f[C1,C2,K1,27] + f[C1,C2,K2,27] + f[C2,C1,K1,27] + f[C2,C1,K2,27]
   <= 0
 cap_P2P_j_C2_C1_27: - 8.623 v[C1,K1,27] - 8.623 v[C1,K2,27]
   + f[C1,C2,K1,27] + f[C1,C2,K2,27] + f[C2,C1,K1,27] + f[C2,C1,K2,27]
   <= 0
 cap_src_in_0_C1_28: - 0.908 v[C1,K1,28] - 0.908 v[C1,K2,28]
   + f[0,C1,K1,28] + f[0,C1,K2,28] + f[C1,0,K1,28] + f[C1,0,K2,28] <= 0
 cap_src_in_0_C2_28: - 0.762 v[C2,K1,28] - 0.762 v[C2,K2,28]
   + f[0,C2,K1,28] + f[0,C2,K2,28] + f[C2,0,K1,28] + f[C2,0,K2,28] <= 0
 cap_src_out_C1_0_28: - 0.908 v[C1,K1,28] - 0.908 v[C1,K2,28]
   + f[0,C1,K1,28] + f[0,C1,K2,28] + f[C1,0,K1,28] + f[C1,0,K2,28] <= 0
 cap_P2P_i_C1_C2_28: - 8.623 v[C1,K1,28] - 8.623 v[C1,K2,28]
   + f[C1,C2,K1,28] + f[C1,C2,K2,28] + f[C2,C1,K1,28] + f[C2,C1,K2,28]
   <= 0
 cap_P2P_j_C1_C2_28: - 8.623 v[C2,K1,28] - 8.623 v[C2,K2,28]
   + f[C1,C2,K1,28] + f[C1,C2,K2,28] + f[C2,C1,K1,28] + f[C2,C1,K2,28]
   <= 0
 cap_src_out_C2_0_28: - 0.762 v[C2,K1,28] - 0.762 v[C2,K2,28]
   + f[0,C2,K1,28] + f[0,C2,K2,28] + f[C2,0,K1,28] + f[C2,0,K2,28] <= 0
 cap_P2P_i_C2_C1_28: - 8.623 v[C2,K1,28] - 8.623 v[C2,K2,28]
   + f[C1,C2,K1,28] + f[C1,C2,K2,28] + f[C2,C1,K1,28] + f[C2,C1,K2,28]
   <= 0
 cap_P2P_j_C2_C1_28: - 8.623 v[C1,K1,28] - 8.623 v[C1,K2,28]
   + f[C1,C2,K1,28] + f[C1,C2,K2,28] + f[C2,C1,K1,28] + f[C2,C1,K2,28]
   <= 0
 cap_src_in_0_C1_29: - 0.908 v[C1,K1,29] - 0.908 v[C1,K2,29]
   + f[0,C1,K1,29] + f[0,C1,K2,29] + f[C1,0,K1,29] + f[C1,0,K2,29] <= 0
 cap_src_in_0_C2_29: - 0.762 v[C2,K1,29] - 0.762 v[C2,K2,29]
   + f[0,C2,K1,29] + f[0,C2,K2,29] + f[C2,0,K1,29] + f[C2,0,K2,29] <= 0
 cap_src_out_C1_0_29: - 0.908 v[C1,K1,29] - 0.908 v[C1,K2,29]
   + f[0,C1,K1,29] + f[0,C1,K2,29] + f[C1,0,K1,29] + f[C1,0,K2,29] <= 0
 cap_P2P_i_C1_C2_29: - 8.623 v[C1,K1,29] - 8.623 v[C1,K2,29]
   + f[C1,C2,K1,29] + f[C1,C2,K2,29] + f[C2,C1,K1,29] + f[C2,C1,K2,29]
   <= 0
 cap_P2P_j_C1_C2_29: - 8.623 v[C2,K1,29] - 8.623 v[C2,K2,29]
   + f[C1,C2,K1,29] + f[C1,C2,K2,29] + f[C2,C1,K1,29] + f[C2,C1,K2,29]
   <= 0
 cap_src_out_C2_0_29: - 0.762 v[C2,K1,29] - 0.762 v[C2,K2,29]
   + f[0,C2,K1,29] + f[0,C2,K2,29] + f[C2,0,K1,29] + f[C2,0,K2,29] <= 0
 cap_P2P_i_C2_C1_29: - 8.623 v[C2,K1,29] - 8.623 v[C2,K2,29]
   + f[C1,C2,K1,29] + f[C1,C2,K2,29] + f[C2,C1,K1,29] + f[C2,C1,K2,29]
   <= 0
 cap_P2P_j_C2_C1_29: - 8.623 v[C1,K1,29] - 8.623 v[C1,K2,29]
   + f[C1,C2,K1,29] + f[C1,C2,K2,29] + f[C2,C1,K1,29] + f[C2,C1,K2,29]
   <= 0
 cap_src_in_0_C1_30: - 0.908 v[C1,K1,30] - 0.908 v[C1,K2,30]
   + f[0,C1,K1,30] + f[0,C1,K2,30] + f[C1,0,K1,30] + f[C1,0,K2,30] <= 0
 cap_src_in_0_C2_30: - 0.762 v[C2,K1,30] - 0.762 v[C2,K2,30]
   + f[0,C2,K1,30] + f[0,C2,K2,30] + f[C2,0,K1,30] + f[C2,0,K2,30] <= 0
 cap_src_out_C1_0_30: - 0.908 v[C1,K1,30] - 0.908 v[C1,K2,30]
   + f[0,C1,K1,30] + f[0,C1,K2,30] + f[C1,0,K1,30] + f[C1,0,K2,30] <= 0
 cap_P2P_i_C1_C2_30: - 8.623 v[C1,K1,30] - 8.623 v[C1,K2,30]
   + f[C1,C2,K1,30] + f[C1,C2,K2,30] + f[C2,C1,K1,30] + f[C2,C1,K2,30]
   <= 0
 cap_P2P_j_C1_C2_30: - 8.623 v[C2,K1,30] - 8.623 v[C2,K2,30]
   + f[C1,C2,K1,30] + f[C1,C2,K2,30] + f[C2,C1,K1,30] + f[C2,C1,K2,30]
   <= 0
 cap_src_out_C2_0_30: - 0.762 v[C2,K1,30] - 0.762 v[C2,K2,30]
   + f[0,C2,K1,30] + f[0,C2,K2,30] + f[C2,0,K1,30] + f[C2,0,K2,30] <= 0
 cap_P2P_i_C2_C1_30: - 8.623 v[C2,K1,30] - 8.623 v[C2,K2,30]
   + f[C1,C2,K1,30] + f[C1,C2,K2,30] + f[C2,C1,K1,30] + f[C2,C1,K2,30]
   <= 0
 cap_P2P_j_C2_C1_30: - 8.623 v[C1,K1,30] - 8.623 v[C1,K2,30]
   + f[C1,C2,K1,30] + f[C1,C2,K2,30] + f[C2,C1,K1,30] + f[C2,C1,K2,30]
   <= 0
Bounds
Binaries
 x[0,C1,K1,1] x[0,C1,K1,2] x[0,C1,K1,3] x[0,C1,K1,4] x[0,C1,K1,5]
 x[0,C1,K1,6] x[0,C1,K1,7] x[0,C1,K1,8] x[0,C1,K1,9] x[0,C1,K1,10]
 x[0,C1,K1,11] x[0,C1,K1,12] x[0,C1,K1,13] x[0,C1,K1,14] x[0,C1,K1,15]
 x[0,C1,K1,16] x[0,C1,K1,17] x[0,C1,K1,18] x[0,C1,K1,19] x[0,C1,K1,20]
 x[0,C1,K1,21] x[0,C1,K1,22] x[0,C1,K1,23] x[0,C1,K1,24] x[0,C1,K1,25]
 x[0,C1,K1,26] x[0,C1,K1,27] x[0,C1,K1,28] x[0,C1,K1,29] x[0,C1,K1,30]
 x[0,C1,K2,1] x[0,C1,K2,2] x[0,C1,K2,3] x[0,C1,K2,4] x[0,C1,K2,5]
 x[0,C1,K2,6] x[0,C1,K2,7] x[0,C1,K2,8] x[0,C1,K2,9] x[0,C1,K2,10]
 x[0,C1,K2,11] x[0,C1,K2,12] x[0,C1,K2,13] x[0,C1,K2,14] x[0,C1,K2,15]
 x[0,C1,K2,16] x[0,C1,K2,17] x[0,C1,K2,18] x[0,C1,K2,19] x[0,C1,K2,20]
 x[0,C1,K2,21] x[0,C1,K2,22] x[0,C1,K2,23] x[0,C1,K2,24] x[0,C1,K2,25]
 x[0,C1,K2,26] x[0,C1,K2,27] x[0,C1,K2,28] x[0,C1,K2,29] x[0,C1,K2,30]
 x[0,C2,K1,1] x[0,C2,K1,2] x[0,C2,K1,3] x[0,C2,K1,4] x[0,C2,K1,5]
 x[0,C2,K1,6] x[0,C2,K1,7] x[0,C2,K1,8] x[0,C2,K1,9] x[0,C2,K1,10]
 x[0,C2,K1,11] x[0,C2,K1,12] x[0,C2,K1,13] x[0,C2,K1,14] x[0,C2,K1,15]
 x[0,C2,K1,16] x[0,C2,K1,17] x[0,C2,K1,18] x[0,C2,K1,19] x[0,C2,K1,20]
 x[0,C2,K1,21] x[0,C2,K1,22] x[0,C2,K1,23] x[0,C2,K1,24] x[0,C2,K1,25]
 x[0,C2,K1,26] x[0,C2,K1,27] x[0,C2,K1,28] x[0,C2,K1,29] x[0,C2,K1,30]
 x[0,C2,K2,1] x[0,C2,K2,2] x[0,C2,K2,3] x[0,C2,K2,4] x[0,C2,K2,5]
 x[0,C2,K2,6] x[0,C2,K2,7] x[0,C2,K2,8] x[0,C2,K2,9] x[0,C2,K2,10]
 x[0,C2,K2,11] x[0,C2,K2,12] x[0,C2,K2,13] x[0,C2,K2,14] x[0,C2,K2,15]
 x[0,C2,K2,16] x[0,C2,K2,17] x[0,C2,K2,18] x[0,C2,K2,19] x[0,C2,K2,20]
 x[0,C2,K2,21] x[0,C2,K2,22] x[0,C2,K2,23] x[0,C2,K2,24] x[0,C2,K2,25]
 x[0,C2,K2,26] x[0,C2,K2,27] x[0,C2,K2,28] x[0,C2,K2,29] x[0,C2,K2,30]
 x[C1,0,K1,1] x[C1,0,K1,2] x[C1,0,K1,3] x[C1,0,K1,4] x[C1,0,K1,5]
 x[C1,0,K1,6] x[C1,0,K1,7] x[C1,0,K1,8] x[C1,0,K1,9] x[C1,0,K1,10]
 x[C1,0,K1,11] x[C1,0,K1,12] x[C1,0,K1,13] x[C1,0,K1,14] x[C1,0,K1,15]
 x[C1,0,K1,16] x[C1,0,K1,17] x[C1,0,K1,18] x[C1,0,K1,19] x[C1,0,K1,20]
 x[C1,0,K1,21] x[C1,0,K1,22] x[C1,0,K1,23] x[C1,0,K1,24] x[C1,0,K1,25]
 x[C1,0,K1,26] x[C1,0,K1,27] x[C1,0,K1,28] x[C1,0,K1,29] x[C1,0,K1,30]
 x[C1,0,K2,1] x[C1,0,K2,2] x[C1,0,K2,3] x[C1,0,K2,4] x[C1,0,K2,5]
 x[C1,0,K2,6] x[C1,0,K2,7] x[C1,0,K2,8] x[C1,0,K2,9] x[C1,0,K2,10]
 x[C1,0,K2,11] x[C1,0,K2,12] x[C1,0,K2,13] x[C1,0,K2,14] x[C1,0,K2,15]
 x[C1,0,K2,16] x[C1,0,K2,17] x[C1,0,K2,18] x[C1,0,K2,19] x[C1,0,K2,20]
 x[C1,0,K2,21] x[C1,0,K2,22] x[C1,0,K2,23] x[C1,0,K2,24] x[C1,0,K2,25]
 x[C1,0,K2,26] x[C1,0,K2,27] x[C1,0,K2,28] x[C1,0,K2,29] x[C1,0,K2,30]
 x[C1,C2,K1,1] x[C1,C2,K1,2] x[C1,C2,K1,3] x[C1,C2,K1,4] x[C1,C2,K1,5]
 x[C1,C2,K1,6] x[C1,C2,K1,7] x[C1,C2,K1,8] x[C1,C2,K1,9] x[C1,C2,K1,10]
 x[C1,C2,K1,11] x[C1,C2,K1,12] x[C1,C2,K1,13] x[C1,C2,K1,14] x[C1,C2,K1,15]
 x[C1,C2,K1,16] x[C1,C2,K1,17] x[C1,C2,K1,18] x[C1,C2,K1,19] x[C1,C2,K1,20]
 x[C1,C2,K1,21] x[C1,C2,K1,22] x[C1,C2,K1,23] x[C1,C2,K1,24] x[C1,C2,K1,25]
 x[C1,C2,K1,26] x[C1,C2,K1,27] x[C1,C2,K1,28] x[C1,C2,K1,29] x[C1,C2,K1,30]
 x[C1,C2,K2,1] x[C1,C2,K2,2] x[C1,C2,K2,3] x[C1,C2,K2,4] x[C1,C2,K2,5]
 x[C1,C2,K2,6] x[C1,C2,K2,7] x[C1,C2,K2,8] x[C1,C2,K2,9] x[C1,C2,K2,10]
 x[C1,C2,K2,11] x[C1,C2,K2,12] x[C1,C2,K2,13] x[C1,C2,K2,14] x[C1,C2,K2,15]
 x[C1,C2,K2,16] x[C1,C2,K2,17] x[C1,C2,K2,18] x[C1,C2,K2,19] x[C1,C2,K2,20]
 x[C1,C2,K2,21] x[C1,C2,K2,22] x[C1,C2,K2,23] x[C1,C2,K2,24] x[C1,C2,K2,25]
 x[C1,C2,K2,26] x[C1,C2,K2,27] x[C1,C2,K2,28] x[C1,C2,K2,29] x[C1,C2,K2,30]
 x[C2,0,K1,1] x[C2,0,K1,2] x[C2,0,K1,3] x[C2,0,K1,4] x[C2,0,K1,5]
 x[C2,0,K1,6] x[C2,0,K1,7] x[C2,0,K1,8] x[C2,0,K1,9] x[C2,0,K1,10]
 x[C2,0,K1,11] x[C2,0,K1,12] x[C2,0,K1,13] x[C2,0,K1,14] x[C2,0,K1,15]
 x[C2,0,K1,16] x[C2,0,K1,17] x[C2,0,K1,18] x[C2,0,K1,19] x[C2,0,K1,20]
 x[C2,0,K1,21] x[C2,0,K1,22] x[C2,0,K1,23] x[C2,0,K1,24] x[C2,0,K1,25]
 x[C2,0,K1,26] x[C2,0,K1,27] x[C2,0,K1,28] x[C2,0,K1,29] x[C2,0,K1,30]
 x[C2,0,K2,1] x[C2,0,K2,2] x[C2,0,K2,3] x[C2,0,K2,4] x[C2,0,K2,5]
 x[C2,0,K2,6] x[C2,0,K2,7] x[C2,0,K2,8] x[C2,0,K2,9] x[C2,0,K2,10]
 x[C2,0,K2,11] x[C2,0,K2,12] x[C2,0,K2,13] x[C2,0,K2,14] x[C2,0,K2,15]
 x[C2,0,K2,16] x[C2,0,K2,17] x[C2,0,K2,18] x[C2,0,K2,19] x[C2,0,K2,20]
 x[C2,0,K2,21] x[C2,0,K2,22] x[C2,0,K2,23] x[C2,0,K2,24] x[C2,0,K2,25]
 x[C2,0,K2,26] x[C2,0,K2,27] x[C2,0,K2,28] x[C2,0,K2,29] x[C2,0,K2,30]
 x[C2,C1,K1,1] x[C2,C1,K1,2] x[C2,C1,K1,3] x[C2,C1,K1,4] x[C2,C1,K1,5]
 x[C2,C1,K1,6] x[C2,C1,K1,7] x[C2,C1,K1,8] x[C2,C1,K1,9] x[C2,C1,K1,10]
 x[C2,C1,K1,11] x[C2,C1,K1,12] x[C2,C1,K1,13] x[C2,C1,K1,14] x[C2,C1,K1,15]
 x[C2,C1,K1,16] x[C2,C1,K1,17] x[C2,C1,K1,18] x[C2,C1,K1,19] x[C2,C1,K1,20]
 x[C2,C1,K1,21] x[C2,C1,K1,22] x[C2,C1,K1,23] x[C2,C1,K1,24] x[C2,C1,K1,25]
 x[C2,C1,K1,26] x[C2,C1,K1,27] x[C2,C1,K1,28] x[C2,C1,K1,29] x[C2,C1,K1,30]
 x[C2,C1,K2,1] x[C2,C1,K2,2] x[C2,C1,K2,3] x[C2,C1,K2,4] x[C2,C1,K2,5]
 x[C2,C1,K2,6] x[C2,C1,K2,7] x[C2,C1,K2,8] x[C2,C1,K2,9] x[C2,C1,K2,10]
 x[C2,C1,K2,11] x[C2,C1,K2,12] x[C2,C1,K2,13] x[C2,C1,K2,14] x[C2,C1,K2,15]
 x[C2,C1,K2,16] x[C2,C1,K2,17] x[C2,C1,K2,18] x[C2,C1,K2,19] x[C2,C1,K2,20]
 x[C2,C1,K2,21] x[C2,C1,K2,22] x[C2,C1,K2,23] x[C2,C1,K2,24] x[C2,C1,K2,25]
 x[C2,C1,K2,26] x[C2,C1,K2,27] x[C2,C1,K2,28] x[C2,C1,K2,29] x[C2,C1,K2,30]
 v[0,K1,1] v[0,K1,2] v[0,K1,3] v[0,K1,4] v[0,K1,5] v[0,K1,6] v[0,K1,7]
 v[0,K1,8] v[0,K1,9] v[0,K1,10] v[0,K1,11] v[0,K1,12] v[0,K1,13] v[0,K1,14]
 v[0,K1,15] v[0,K1,16] v[0,K1,17] v[0,K1,18] v[0,K1,19] v[0,K1,20]
 v[0,K1,21] v[0,K1,22] v[0,K1,23] v[0,K1,24] v[0,K1,25] v[0,K1,26]
 v[0,K1,27] v[0,K1,28] v[0,K1,29] v[0,K1,30] v[0,K2,1] v[0,K2,2] v[0,K2,3]
 v[0,K2,4] v[0,K2,5] v[0,K2,6] v[0,K2,7] v[0,K2,8] v[0,K2,9] v[0,K2,10]
 v[0,K2,11] v[0,K2,12] v[0,K2,13] v[0,K2,14] v[0,K2,15] v[0,K2,16]
 v[0,K2,17] v[0,K2,18] v[0,K2,19] v[0,K2,20] v[0,K2,21] v[0,K2,22]
 v[0,K2,23] v[0,K2,24] v[0,K2,25] v[0,K2,26] v[0,K2,27] v[0,K2,28]
 v[0,K2,29] v[0,K2,30] v[C1,K1,1] v[C1,K1,2] v[C1,K1,3] v[C1,K1,4]
 v[C1,K1,5] v[C1,K1,6] v[C1,K1,7] v[C1,K1,8] v[C1,K1,9] v[C1,K1,10]
 v[C1,K1,11] v[C1,K1,12] v[C1,K1,13] v[C1,K1,14] v[C1,K1,15] v[C1,K1,16]
 v[C1,K1,17] v[C1,K1,18] v[C1,K1,19] v[C1,K1,20] v[C1,K1,21] v[C1,K1,22]
 v[C1,K1,23] v[C1,K1,24] v[C1,K1,25] v[C1,K1,26] v[C1,K1,27] v[C1,K1,28]
 v[C1,K1,29] v[C1,K1,30] v[C1,K2,1] v[C1,K2,2] v[C1,K2,3] v[C1,K2,4]
 v[C1,K2,5] v[C1,K2,6] v[C1,K2,7] v[C1,K2,8] v[C1,K2,9] v[C1,K2,10]
 v[C1,K2,11] v[C1,K2,12] v[C1,K2,13] v[C1,K2,14] v[C1,K2,15] v[C1,K2,16]
 v[C1,K2,17] v[C1,K2,18] v[C1,K2,19] v[C1,K2,20] v[C1,K2,21] v[C1,K2,22]
 v[C1,K2,23] v[C1,K2,24] v[C1,K2,25] v[C1,K2,26] v[C1,K2,27] v[C1,K2,28]
 v[C1,K2,29] v[C1,K2,30] v[C2,K1,1] v[C2,K1,2] v[C2,K1,3] v[C2,K1,4]
 v[C2,K1,5] v[C2,K1,6] v[C2,K1,7] v[C2,K1,8] v[C2,K1,9] v[C2,K1,10]
 v[C2,K1,11] v[C2,K1,12] v[C2,K1,13] v[C2,K1,14] v[C2,K1,15] v[C2,K1,16]
 v[C2,K1,17] v[C2,K1,18] v[C2,K1,19] v[C2,K1,20] v[C2,K1,21] v[C2,K1,22]
 v[C2,K1,23] v[C2,K1,24] v[C2,K1,25] v[C2,K1,26] v[C2,K1,27] v[C2,K1,28]
 v[C2,K1,29] v[C2,K1,30] v[C2,K2,1] v[C2,K2,2] v[C2,K2,3] v[C2,K2,4]
 v[C2,K2,5] v[C2,K2,6] v[C2,K2,7] v[C2,K2,8] v[C2,K2,9] v[C2,K2,10]
 v[C2,K2,11] v[C2,K2,12] v[C2,K2,13] v[C2,K2,14] v[C2,K2,15] v[C2,K2,16]
 v[C2,K2,17] v[C2,K2,18] v[C2,K2,19] v[C2,K2,20] v[C2,K2,21] v[C2,K2,22]
 v[C2,K2,23] v[C2,K2,24] v[C2,K2,25] v[C2,K2,26] v[C2,K2,27] v[C2,K2,28]
 v[C2,K2,29] v[C2,K2,30] z[K1,1] z[K1,2] z[K1,3] z[K1,4] z[K1,5] z[K1,6]
 z[K1,7] z[K1,8] z[K1,9] z[K1,10] z[K1,11] z[K1,12] z[K1,13] z[K1,14]
 z[K1,15] z[K1,16] z[K1,17] z[K1,18] z[K1,19] z[K1,20] z[K1,21] z[K1,22]
 z[K1,23] z[K1,24] z[K1,25] z[K1,26] z[K1,27] z[K1,28] z[K1,29] z[K1,30]
 z[K2,1] z[K2,2] z[K2,3] z[K2,4] z[K2,5] z[K2,6] z[K2,7] z[K2,8] z[K2,9]
 z[K2,10] z[K2,11] z[K2,12] z[K2,13] z[K2,14] z[K2,15] z[K2,16] z[K2,17]
 z[K2,18] z[K2,19] z[K2,20] z[K2,21] z[K2,22] z[K2,23] z[K2,24] z[K2,25]
 z[K2,26] z[K2,27] z[K2,28] z[K2,29] z[K2,30]
End
